POSCAR                                  
   3.00000000000000     
     4.3129999999999997    0.0000000000000000    0.0000000000000000
     0.0000000000000000    4.3129999999999997    0.0000000000000000
     0.0000000000000000    0.0000000000000000    4.3129999999999997
   Ta   Mo   Nb   W 
    32    32    32    32
Direct
  0.0031448358769882  0.7512090045306016  0.7500759365263397
 -0.0008617341853075 -0.0002659318238558  0.7538265440615591
  0.1255193286957767  0.1256807119268272  0.8782630118335514
  0.1295445224245067  0.8739373894314307  0.6229881434145425
 -0.0005451983255107  0.2491539327254272  0.2548754937237984
  0.6265287097464771  0.8717444017846585  0.8786136100007677
  0.0032985923818741 -0.0001703496121157  0.2510234479060891
  0.3722533822364819  0.3737125847425449  0.6202780848294177
  0.6231735119965458  0.6298952880023913  0.8758291467327112
  0.3738757352977858  0.1262304947653511  0.6201384051392983
  0.5017704358627957  0.2493554746678708  0.7523396489458276
  0.5014505872283923  0.0014470696825765  0.7518805148185368
 -0.0008084839806741  0.4987206126250472 -0.0011018060394267
  0.2508158729333175  0.7519629887406138  0.2490854339906196
  0.1271124530891365  0.1231037662412494  0.1219803453257439
  0.4984862742092590  0.4986132384042650  0.4981268511209600
  0.3758576240259225  0.1240720244310105  0.3746464646250464
  0.7495127511108657  0.4976184952934716  0.7500574833451206
  0.8758046621815050  0.6275863025902845  0.8764171302882724
  0.7495923388105510  0.0019647712233758  0.7520645709494441
  0.4989133156049245  0.4989075756834665  0.2504166381132458
  0.7487900808244555  0.7497647243220589  0.5022818746159747
  0.8783312036389941  0.8753072165419258  0.6235859911368808
  0.8775314623740860  0.3733423803439596  0.6237129637726977
  0.8754549032207020  0.1311195811093874  0.6238870594311072
  0.8754803542418618  0.8740230762037872  0.3736308210798369
  0.7479478944570565  0.4969782868960175  0.2505026410652209
  0.4961021604256711  0.0019197331326803  0.0003030183089120
  0.7498410388014409  0.2505033690165686  0.2525523811140929
  0.7480187417757564  0.4967344080519120 -0.0013802853357222
  0.8752231512835786  0.6285500159189490  0.1248209608401405
  0.8745257212184598  0.1200961557297246  0.1237371700901842
  0.1260387443074310  0.8756599394495443  0.8778982315411061
  0.0002100906367729  0.5011009863960705  0.7470263209281639
  0.0024457153198752  0.5000001498372150  0.4995411702094926
  0.1262077568152335  0.6248051537740884  0.6221859875031739
  0.3732299111069051  0.8736450846790785  0.8755048224199499
  0.0012524953776288  0.2525470540007284  0.4978925326667105
  0.3726519800432505  0.3762119427116682  0.8755769759143065
  0.3728613029323263  0.1243539511010569  0.8771590072144980
  0.2477379635588840  0.5012471884801180  0.4991573606517932
  0.3731530925656468  0.6276506267551116  0.6240420813201991
  0.4974862843984819  0.7525779251764787  0.7486365734308702
  0.1281821064761386  0.1258745725424946  0.3759548366094314
  0.2477033621832536  0.2519706674619379  0.4976352986422218
  0.6258402007419390  0.3740770612449407  0.8728668194778014
  0.0021394399852157  0.7534006937971912 -0.0009193029557721
  0.1258414691742294  0.8753369968637158  0.1236110546719876
  0.6221274257890609  0.8741182507635136  0.6259134456979274
  0.0002827659686682 -0.0028382565484883  0.0004896159160978
  0.3717744838396773  0.3732280232803741  0.3748638605988994
  0.5010229373926851  0.2512940915540692  0.4998096218946163
  0.7478526371492477  0.2500523145717657  0.7503850362199833
  0.8757294018796062  0.1251155316316904  0.8753281557172728
  0.3739057926107432  0.8758689655846246  0.1268928525797399
  0.3730102621805969  0.6252527995874629  0.1250077356538304
  0.4970761275431321  0.7496151692648404  0.2498274569144385
  0.2534770477228959  0.2483579250207911 -0.0001769360237547
  0.3741420546995200  0.1235817157085818  0.1277165248425104
  0.6231238441405578  0.3711992332616026  0.3768471118327615
  0.4978082644266307 -0.0002873576863791  0.2479779142643064
  0.7492995969205639  0.2508451596454657  0.4989944238011052
  0.8775893888880852  0.3753564751006988  0.3787676080766335
  0.7507751854639059  0.7516660641645447  0.0019485085763536
  0.1262172402295416  0.6261615450973045  0.8748533358642040
  0.1248724281589649  0.3747941582718980  0.8729860289835050
  0.2500220050926342  0.5020428740902819  0.7473107759848421
  0.3739999359535281  0.6274688751401082  0.8744743038985090
  0.0029066394670772  0.0023661430543146  0.4966888305578924
  0.1256357046390559  0.1278237666919425  0.6245326154778598
  0.2517681584340389  0.2519526287164210  0.7505374607197840
  0.2534001820321669 -0.0018123134819988  0.7529372517965193
  0.0039405688448420  0.7520721337429376  0.2496451849905099
  0.4999186670136791  0.4970884486407540  0.7485260252253372
  0.1247049685055844  0.6252028513311523  0.1249635618929500
 -0.0032058313760281  0.2503637602491245 -0.0017166747225886
  0.1281932201790232  0.3760525801796477  0.1263973318988209
  0.3721785351246444  0.6261453555392458  0.3756165441379313
  0.2498292839532215  0.2492254202913503  0.2521653426638374
  0.6224742470936701  0.6255529272955133  0.6268022090835172
  0.7525049177795106  0.7513240163324723  0.7477317710623428
  0.5000553950835068 -0.0025085613484186  0.5025294588515331
  0.6223256796432923  0.8752978775742553  0.3712647247798554
  0.3714142140450168  0.3735113122468599  0.1251313674667651
  0.6224992951702792  0.6279137249989192  0.3734580028671629
  0.7496317415431378  0.4987654012492058  0.4995697003658997
  0.6224494918961246  0.1246896720331468  0.3752203107891501
  0.7485051217858623  0.0006898125517922  0.5015651327505064
  0.4948636790428490  0.7516316467536133  0.0034702545283775
  0.6255838197556201  0.8739251951355448  0.1271777576029585
  0.4985751091503760  0.4987952782162193  0.0005505885089196
  0.4997167207653079  0.2469660461873440 -0.0027468547863401
  0.6209313993752171  0.3720674296100196  0.1254964124495973
  0.8784765226437736  0.6250042006318177  0.3745992737295177
  0.7475596820096208  0.2487239144001427 -0.0027882820789108
  0.8765196687140037  0.3748248377018690  0.1254400126782570
 -0.0005746630437662  0.2511757361698314  0.7494657563606361
  0.0039256902824125  0.7471045918801791  0.5007015597160162
  0.2508133358603116  0.7507378006681532  0.7490898699895469
  0.1231282851507528  0.3774429329357781  0.6214924540304402
  0.1281177028560383  0.8739267770067577  0.3761619311684040
  0.0006987032946247  0.4981981857432247  0.2529532961195893
  0.1256449842615933  0.6227067433360738  0.3765303108433729
  0.2509545405565013  0.7490588038461209  0.4992938624432097
  0.3739037061476976  0.8730919495637761  0.6244658588540681
  0.1253614705623972  0.3778896613101895  0.3777403200596588
  0.2505188967554088 -0.0019077646960939  0.4971458178977791
  0.6271867264922720  0.1236408615493751  0.8759205022294889
  0.3748185309077352  0.8753656624256725  0.3754883451297049
  0.2501629447773704  0.5010549353189934  0.2518831980948515
  0.4969983627328935  0.7503638774608262  0.5020806263157362
  0.8755331191324529  0.8748362446214547  0.8801134677283005
  0.2504231319174563 -0.0027219169121171  0.2488090927246086
  0.6260705948828779  0.3719949785788461  0.6227238011570402
  0.6264134686680189  0.1281350446381934  0.6237960938569329
  0.8765222708670447  0.3743364293079778  0.8694787400477930
  0.2503174625490928  0.7539219314704073  0.0012414219390652
  0.2509744535398434  0.5019429724543480 -0.0004768562752165
  0.2525221483063477 -0.0031975733946740  0.0013775809768412
  0.4997803990064655  0.2490650524844362  0.2496487992766436
  0.8793925806444787  0.6224614480857947  0.6244731873844263
  0.6252771674925548  0.6280777293027298  0.1254176911986851
  0.7498276369823764  0.7496117176239618  0.2493022415295257
  0.6248976616245754  0.1210408069007908  0.1274801815239573
  0.7507179061119551  0.0007658347972345  0.2483575058943930
  0.8738202426457367  0.1248698973656312  0.3766318099580800
  0.8736730546130173  0.8745424911877795  0.1239149113469020
  0.7500437099498549  0.0006383053434882 -0.0009155421189520
 
  0.00000000E+00  0.00000000E+00  0.00000000E+00
  0.00000000E+00  0.00000000E+00  0.00000000E+00
  0.00000000E+00  0.00000000E+00  0.00000000E+00
  0.00000000E+00  0.00000000E+00  0.00000000E+00
  0.00000000E+00  0.00000000E+00  0.00000000E+00
  0.00000000E+00  0.00000000E+00  0.00000000E+00
  0.00000000E+00  0.00000000E+00  0.00000000E+00
  0.00000000E+00  0.00000000E+00  0.00000000E+00
  0.00000000E+00  0.00000000E+00  0.00000000E+00
  0.00000000E+00  0.00000000E+00  0.00000000E+00
  0.00000000E+00  0.00000000E+00  0.00000000E+00
  0.00000000E+00  0.00000000E+00  0.00000000E+00
  0.00000000E+00  0.00000000E+00  0.00000000E+00
  0.00000000E+00  0.00000000E+00  0.00000000E+00
  0.00000000E+00  0.00000000E+00  0.00000000E+00
  0.00000000E+00  0.00000000E+00  0.00000000E+00
  0.00000000E+00  0.00000000E+00  0.00000000E+00
  0.00000000E+00  0.00000000E+00  0.00000000E+00
  0.00000000E+00  0.00000000E+00  0.00000000E+00
  0.00000000E+00  0.00000000E+00  0.00000000E+00
  0.00000000E+00  0.00000000E+00  0.00000000E+00
  0.00000000E+00  0.00000000E+00  0.00000000E+00
  0.00000000E+00  0.00000000E+00  0.00000000E+00
  0.00000000E+00  0.00000000E+00  0.00000000E+00
  0.00000000E+00  0.00000000E+00  0.00000000E+00
  0.00000000E+00  0.00000000E+00  0.00000000E+00
  0.00000000E+00  0.00000000E+00  0.00000000E+00
  0.00000000E+00  0.00000000E+00  0.00000000E+00
  0.00000000E+00  0.00000000E+00  0.00000000E+00
  0.00000000E+00  0.00000000E+00  0.00000000E+00
  0.00000000E+00  0.00000000E+00  0.00000000E+00
  0.00000000E+00  0.00000000E+00  0.00000000E+00
  0.00000000E+00  0.00000000E+00  0.00000000E+00
  0.00000000E+00  0.00000000E+00  0.00000000E+00
  0.00000000E+00  0.00000000E+00  0.00000000E+00
  0.00000000E+00  0.00000000E+00  0.00000000E+00
  0.00000000E+00  0.00000000E+00  0.00000000E+00
  0.00000000E+00  0.00000000E+00  0.00000000E+00
  0.00000000E+00  0.00000000E+00  0.00000000E+00
  0.00000000E+00  0.00000000E+00  0.00000000E+00
  0.00000000E+00  0.00000000E+00  0.00000000E+00
  0.00000000E+00  0.00000000E+00  0.00000000E+00
  0.00000000E+00  0.00000000E+00  0.00000000E+00
  0.00000000E+00  0.00000000E+00  0.00000000E+00
  0.00000000E+00  0.00000000E+00  0.00000000E+00
  0.00000000E+00  0.00000000E+00  0.00000000E+00
  0.00000000E+00  0.00000000E+00  0.00000000E+00
  0.00000000E+00  0.00000000E+00  0.00000000E+00
  0.00000000E+00  0.00000000E+00  0.00000000E+00
  0.00000000E+00  0.00000000E+00  0.00000000E+00
  0.00000000E+00  0.00000000E+00  0.00000000E+00
  0.00000000E+00  0.00000000E+00  0.00000000E+00
  0.00000000E+00  0.00000000E+00  0.00000000E+00
  0.00000000E+00  0.00000000E+00  0.00000000E+00
  0.00000000E+00  0.00000000E+00  0.00000000E+00
  0.00000000E+00  0.00000000E+00  0.00000000E+00
  0.00000000E+00  0.00000000E+00  0.00000000E+00
  0.00000000E+00  0.00000000E+00  0.00000000E+00
  0.00000000E+00  0.00000000E+00  0.00000000E+00
  0.00000000E+00  0.00000000E+00  0.00000000E+00
  0.00000000E+00  0.00000000E+00  0.00000000E+00
  0.00000000E+00  0.00000000E+00  0.00000000E+00
  0.00000000E+00  0.00000000E+00  0.00000000E+00
  0.00000000E+00  0.00000000E+00  0.00000000E+00
  0.00000000E+00  0.00000000E+00  0.00000000E+00
  0.00000000E+00  0.00000000E+00  0.00000000E+00
  0.00000000E+00  0.00000000E+00  0.00000000E+00
  0.00000000E+00  0.00000000E+00  0.00000000E+00
  0.00000000E+00  0.00000000E+00  0.00000000E+00
  0.00000000E+00  0.00000000E+00  0.00000000E+00
  0.00000000E+00  0.00000000E+00  0.00000000E+00
  0.00000000E+00  0.00000000E+00  0.00000000E+00
  0.00000000E+00  0.00000000E+00  0.00000000E+00
  0.00000000E+00  0.00000000E+00  0.00000000E+00
  0.00000000E+00  0.00000000E+00  0.00000000E+00
  0.00000000E+00  0.00000000E+00  0.00000000E+00
  0.00000000E+00  0.00000000E+00  0.00000000E+00
  0.00000000E+00  0.00000000E+00  0.00000000E+00
  0.00000000E+00  0.00000000E+00  0.00000000E+00
  0.00000000E+00  0.00000000E+00  0.00000000E+00
  0.00000000E+00  0.00000000E+00  0.00000000E+00
  0.00000000E+00  0.00000000E+00  0.00000000E+00
  0.00000000E+00  0.00000000E+00  0.00000000E+00
  0.00000000E+00  0.00000000E+00  0.00000000E+00
  0.00000000E+00  0.00000000E+00  0.00000000E+00
  0.00000000E+00  0.00000000E+00  0.00000000E+00
  0.00000000E+00  0.00000000E+00  0.00000000E+00
  0.00000000E+00  0.00000000E+00  0.00000000E+00
  0.00000000E+00  0.00000000E+00  0.00000000E+00
  0.00000000E+00  0.00000000E+00  0.00000000E+00
  0.00000000E+00  0.00000000E+00  0.00000000E+00
  0.00000000E+00  0.00000000E+00  0.00000000E+00
  0.00000000E+00  0.00000000E+00  0.00000000E+00
  0.00000000E+00  0.00000000E+00  0.00000000E+00
  0.00000000E+00  0.00000000E+00  0.00000000E+00
  0.00000000E+00  0.00000000E+00  0.00000000E+00
  0.00000000E+00  0.00000000E+00  0.00000000E+00
  0.00000000E+00  0.00000000E+00  0.00000000E+00
  0.00000000E+00  0.00000000E+00  0.00000000E+00
  0.00000000E+00  0.00000000E+00  0.00000000E+00
  0.00000000E+00  0.00000000E+00  0.00000000E+00
  0.00000000E+00  0.00000000E+00  0.00000000E+00
  0.00000000E+00  0.00000000E+00  0.00000000E+00
  0.00000000E+00  0.00000000E+00  0.00000000E+00
  0.00000000E+00  0.00000000E+00  0.00000000E+00
  0.00000000E+00  0.00000000E+00  0.00000000E+00
  0.00000000E+00  0.00000000E+00  0.00000000E+00
  0.00000000E+00  0.00000000E+00  0.00000000E+00
  0.00000000E+00  0.00000000E+00  0.00000000E+00
  0.00000000E+00  0.00000000E+00  0.00000000E+00
  0.00000000E+00  0.00000000E+00  0.00000000E+00
  0.00000000E+00  0.00000000E+00  0.00000000E+00
  0.00000000E+00  0.00000000E+00  0.00000000E+00
  0.00000000E+00  0.00000000E+00  0.00000000E+00
  0.00000000E+00  0.00000000E+00  0.00000000E+00
  0.00000000E+00  0.00000000E+00  0.00000000E+00
  0.00000000E+00  0.00000000E+00  0.00000000E+00
  0.00000000E+00  0.00000000E+00  0.00000000E+00
  0.00000000E+00  0.00000000E+00  0.00000000E+00
  0.00000000E+00  0.00000000E+00  0.00000000E+00
  0.00000000E+00  0.00000000E+00  0.00000000E+00
  0.00000000E+00  0.00000000E+00  0.00000000E+00
  0.00000000E+00  0.00000000E+00  0.00000000E+00
  0.00000000E+00  0.00000000E+00  0.00000000E+00
  0.00000000E+00  0.00000000E+00  0.00000000E+00
  0.00000000E+00  0.00000000E+00  0.00000000E+00
  0.00000000E+00  0.00000000E+00  0.00000000E+00
  0.00000000E+00  0.00000000E+00  0.00000000E+00
