Ta Mo Nb  W 
 1.0000000000000000
    12.9390000000000001    0.0000000000000000    0.0000000000000000
     0.0000000000000000   12.9390000000000001    0.0000000000000000
     0.0000000000000000    0.0000000000000000   12.9390000000000001
 Ta  Mo  Nb  W  
  32  32  32  32
Selective dynamics
Cartesian
 12.9390000000000001  9.7042500000000000  9.7042500000000000   F   F   T
 12.9390000000000001 12.9390000000000001  9.7042500000000000   F   F   T
  1.6173750000000000  1.6173750000000000 11.3216250000000009   F   F   T
  1.6173750000000000 11.3216250000000009  8.0868749999999991   F   F   T
 12.9390000000000001  3.2347500000000000  3.2347500000000000   F   F   T
  8.0868749999999991 11.3216250000000009 11.3216250000000009   F   F   T
 12.9390000000000001 12.9390000000000001  3.2347500000000000   F   F   T
  4.8521250000000000  4.8521250000000000  8.0868749999999991   F   F   T
  8.0868749999999991  8.0868749999999991 11.3216250000000009   F   F   T
  4.8521250000000000  1.6173750000000000  8.0868749999999991   F   F   T
  6.4695000000000000  3.2347500000000000  9.7042500000000000   F   F   T
  6.4695000000000000 12.9390000000000001  9.7042500000000000   F   F   T
 12.9390000000000001  6.4695000000000000 12.9390000000000001   F   F   T
  3.2347500000000000  9.7042500000000000  3.2347500000000000   F   F   T
  1.6173750000000000  1.6173750000000000  1.6173750000000000   F   F   T
  6.4695000000000000  6.4695000000000000  6.4695000000000000   F   F   T
  4.8521250000000000  1.6173750000000000  4.8521250000000000   F   F   T
  9.7042500000000000  6.4695000000000000  9.7042500000000000   F   F   T
 11.3216250000000009  8.0868749999999991 11.3216250000000009   F   F   T
  9.7042500000000000 12.9390000000000001  9.7042500000000000   F   F   T
  6.4695000000000000  6.4695000000000000  3.2347500000000000   F   F   T
  9.7042500000000000  9.7042500000000000  6.4695000000000000   F   F   T
 11.3216250000000009 11.3216250000000009  8.0868749999999991   F   F   T
 11.3216250000000009  4.8521250000000000  8.0868749999999991   F   F   T
 11.3216250000000009  1.6173750000000000  8.0868749999999991   F   F   T
 11.3216250000000009 11.3216250000000009  4.8521250000000000   F   F   T
  9.7042500000000000  6.4695000000000000  3.2347500000000000   F   F   T
  6.4695000000000000 12.9390000000000001 12.9390000000000001   F   F   T
  9.7042500000000000  3.2347500000000000  3.2347500000000000   F   F   T
  9.7042500000000000  6.4695000000000000 12.9390000000000001   F   F   T
 11.3216250000000009  8.0868749999999991  1.6173750000000000   F   F   T
 11.3216250000000009  1.6173750000000000  1.6173750000000000   F   F   T
  1.6173750000000000 11.3216250000000009 11.3216250000000009   F   F   T
 12.9390000000000001  6.4695000000000000  9.7042500000000000   F   F   T
 12.9390000000000001  6.4695000000000000  6.4695000000000000   F   F   T
  1.6173750000000000  8.0868749999999991  8.0868749999999991   F   F   T
  4.8521250000000000 11.3216250000000009 11.3216250000000009   F   F   T
 12.9390000000000001  3.2347500000000000  6.4695000000000000   F   F   T
  4.8521250000000000  4.8521250000000000 11.3216250000000009   F   F   T
  4.8521250000000000  1.6173750000000000 11.3216250000000009   F   F   T
  3.2347500000000000  6.4695000000000000  6.4695000000000000   F   F   T
  4.8521250000000000  8.0868749999999991  8.0868749999999991   F   F   T
  6.4695000000000000  9.7042500000000000  9.7042500000000000   F   F   T
  1.6173750000000000  1.6173750000000000  4.8521250000000000   F   F   T
  3.2347500000000000  3.2347500000000000  6.4695000000000000   F   F   T
  8.0868749999999991  4.8521250000000000 11.3216250000000009   F   F   T
 12.9390000000000001  9.7042500000000000 12.9390000000000001   F   F   T
  1.6173750000000000 11.3216250000000009  1.6173750000000000   F   F   T
  8.0868749999999991 11.3216250000000009  8.0868749999999991   F   F   T
 12.9390000000000001 12.9390000000000001 12.9390000000000001   F   F   T
  4.8521250000000000  4.8521250000000000  4.8521250000000000   F   F   T
  6.4695000000000000  3.2347500000000000  6.4695000000000000   F   F   T
  9.7042500000000000  3.2347500000000000  9.7042500000000000   F   F   T
 11.3216250000000009  1.6173750000000000 11.3216250000000009   F   F   T
  4.8521250000000000 11.3216250000000009  1.6173750000000000   F   F   T
  4.8521250000000000  8.0868749999999991  1.6173750000000000   F   F   T
  6.4695000000000000  9.7042500000000000  3.2347500000000000   F   F   T
  3.2347500000000000  3.2347500000000000 12.9390000000000001   F   F   T
  4.8521250000000000  1.6173750000000000  1.6173750000000000   F   F   T
  8.0868749999999991  4.8521250000000000  4.8521250000000000   F   F   T
  6.4695000000000000 12.9390000000000001  3.2347500000000000   F   F   T
  9.7042500000000000  3.2347500000000000  6.4695000000000000   F   F   T
 11.3216250000000009  4.8521250000000000  4.8521250000000000   F   F   T
  9.7042500000000000  9.7042500000000000 12.9390000000000001   F   F   T
  1.6173750000000000  8.0868749999999991 11.3216250000000009   F   F   T
  1.6173750000000000  4.8521250000000000 11.3216250000000009   F   F   T
  3.2347500000000000  6.4695000000000000  9.7042500000000000   F   F   T
  4.8521250000000000  8.0868749999999991 11.3216250000000009   F   F   T
 12.9390000000000001 12.9390000000000001  6.4695000000000000   F   F   T
  1.6173750000000000  1.6173750000000000  8.0868749999999991   F   F   T
  3.2347500000000000  3.2347500000000000  9.7042500000000000   F   F   T
  3.2347500000000000 12.9390000000000001  9.7042500000000000   F   F   T
 12.9390000000000001  9.7042500000000000  3.2347500000000000   F   F   T
  6.4695000000000000  6.4695000000000000  9.7042500000000000   F   F   T
  1.6173750000000000  8.0868749999999991  1.6173750000000000   F   F   T
 12.9390000000000001  3.2347500000000000 12.9390000000000001   F   F   T
  1.6173750000000000  4.8521250000000000  1.6173750000000000   F   F   T
  4.8521250000000000  8.0868749999999991  4.8521250000000000   F   F   T
  3.2347500000000000  3.2347500000000000  3.2347500000000000   F   F   T
  8.0868749999999991  8.0868749999999991  8.0868749999999991   F   F   T
  9.7042500000000000  9.7042500000000000  9.7042500000000000   F   F   T
  6.4695000000000000 12.9390000000000001  6.4695000000000000   F   F   T
  8.0868749999999991 11.3216250000000009  4.8521250000000000   F   F   T
  4.8521250000000000  4.8521250000000000  1.6173750000000000   F   F   T
  8.0868749999999991  8.0868749999999991  4.8521250000000000   F   F   T
  9.7042500000000000  6.4695000000000000  6.4695000000000000   F   F   T
  8.0868749999999991  1.6173750000000000  4.8521250000000000   F   F   T
  9.7042500000000000 12.9390000000000001  6.4695000000000000   F   F   T
  6.4695000000000000  9.7042500000000000 12.9390000000000001   F   F   T
  8.0868749999999991 11.3216250000000009  1.6173750000000000   F   F   T
  6.4695000000000000  6.4695000000000000 12.9390000000000001   F   F   T
  6.4695000000000000  3.2347500000000000 12.9390000000000001   F   F   T
  8.0868749999999991  4.8521250000000000  1.6173750000000000   F   F   T
 11.3216250000000009  8.0868749999999991  4.8521250000000000   F   F   T
  9.7042500000000000  3.2347500000000000 12.9390000000000001   F   F   T
 11.3216250000000009  4.8521250000000000  1.6173750000000000   F   F   T
 12.9390000000000001  3.2347500000000000  9.7042500000000000   F   F   T
 12.9390000000000001  9.7042500000000000  6.4695000000000000   F   F   T
  3.2347500000000000  9.7042500000000000  9.7042500000000000   F   F   T
  1.6173750000000000  4.8521250000000000  8.0868749999999991   F   F   T
  1.6173750000000000 11.3216250000000009  4.8521250000000000   F   F   T
 12.9390000000000001  6.4695000000000000  3.2347500000000000   F   F   T
  1.6173750000000000  8.0868749999999991  4.8521250000000000   F   F   T
  3.2347500000000000  9.7042500000000000  6.4695000000000000   F   F   T
  4.8521250000000000 11.3216250000000009  8.0868749999999991   F   F   T
  1.6173750000000000  4.8521250000000000  4.8521250000000000   F   F   T
  3.2347500000000000 12.9390000000000001  6.4695000000000000   F   F   T
  8.0868749999999991  1.6173750000000000 11.3216250000000009   F   F   T
  4.8521250000000000 11.3216250000000009  4.8521250000000000   F   F   T
  3.2347500000000000  6.4695000000000000  3.2347500000000000   F   F   T
  6.4695000000000000  9.7042500000000000  6.4695000000000000   F   F   T
 11.3216250000000009 11.3216250000000009 11.3216250000000009   F   F   T
  3.2347500000000000 12.9390000000000001  3.2347500000000000   F   F   T
  8.0868749999999991  4.8521250000000000  8.0868749999999991   F   F   T
  8.0868749999999991  1.6173750000000000  8.0868749999999991   F   F   T
 11.3216250000000009  4.8521250000000000 11.3216250000000009   F   F   T
  3.2347500000000000  9.7042500000000000 12.9390000000000001   F   F   T
  3.2347500000000000  6.4695000000000000 12.9390000000000001   F   F   T
  3.2347500000000000 12.9390000000000001 12.9390000000000001   F   F   T
  6.4695000000000000  3.2347500000000000  3.2347500000000000   F   F   T
 11.3216250000000009  8.0868749999999991  8.0868749999999991   F   F   T
  8.0868749999999991  8.0868749999999991  1.6173750000000000   F   F   T
  9.7042500000000000  9.7042500000000000  3.2347500000000000   F   F   T
  8.0868749999999991  1.6173750000000000  1.6173750000000000   F   F   T
  9.7042500000000000 12.9390000000000001  3.2347500000000000   F   F   T
 11.3216250000000009  1.6173750000000000  4.8521250000000000   F   F   T
 11.3216250000000009 11.3216250000000009  1.6173750000000000   F   F   T
  9.7042500000000000 12.9390000000000001 12.9390000000000001   F   F   T
