0.0                                     
   3.00000000000000     
     4.3992599999999999    0.0000000000000000    0.0000000000000000
     0.0000000000000000    4.2908689419144466    0.0000000000000000
     0.0000000000000000    0.0000000000000000    4.2886286349878455
   Mo   Nb   Ta   W 
    32    32    32    32
Selective dynamics
Direct
  0.0023301808513462  0.9990981972075039  0.9979947394581523   T   T   T
  0.9987153139093047  0.0014889935069843  0.7493710207056906   T   T   T
  0.9999079223505078  0.7523331289955140  0.0001958332832496   T   T   T
  0.0029779050613798  0.7519882937106611  0.2482033018347346   T   T   T
  0.9974823485843421  0.7540863868848011  0.7506689775148384   T   T   T
  0.1226405161274010  0.1239129497847613  0.6238677504806507   T   T   T
  0.1206356485756692  0.1231347516231448  0.8741250544681317   T   T   T
  0.1255822787689967  0.6283912267746796  0.1265398338723318   T   T   T
  0.1249025398565182  0.8737792497697370  0.1266746886891112   T   T   T
  0.2486942184687199  0.9982309171815527  0.2515072858619288   T   T   T
  0.2496221968866123  0.7515966042068239  0.2483166513073156   T   T   T
  0.2483457234010228  0.7533959670589846  0.4978867579465669   T   T   T
  0.3754384927031630  0.1250115838993425  0.6235683478467906   T   T   T
  0.3737764143421530  0.6254443130480700  0.1265699961349170   T   T   T
  0.3726692250004288  0.8750967758711825  0.3741302067297331   T   T   T
  0.5001654593509700  0.2484186235585837  0.5021832348156869   T   T   T
  0.4990975964259329  0.5018879899823472  0.2504239103563353   T   T   T
  0.5011922593294668  0.4988964136863069  0.4997259167322046   T   T   T
  0.6255402678603231  0.1260532868494885  0.6259515017958350   T   T   T
  0.6267004639514751  0.1267439282931793  0.8713297228704285   T   T   T
  0.6233592212973238  0.3741435965294960  0.6267981055526899   T   T   T
  0.6256700917195858  0.3762217551205418  0.8715121656435133   T   T   T
  0.6230660333165851  0.6260160198319593  0.1245659910924512   T   T   T
  0.6221497267912487  0.6256744207172100  0.3745870960203117   T   T   T
  0.7492148908779903  0.2487442148060215  0.7505464000615383   T   T   T
  0.7483952953534116  0.4988796978224920  0.7508073742150431   T   T   T
  0.7506604136210820  0.7518682213623288  0.5009364882767607   T   T   T
  0.8762834828181529  0.1242888622877984  0.6264266965957394   T   T   T
  0.8732157833900471  0.3732126396081511  0.8736429848356508   T   T   T
  0.8774830199020988  0.6271053038851871  0.1242474242191487   T   T   T
  0.8778149887721219  0.8760258420327048  0.3762167829813926   T   T   T
  0.8782622755569774  0.8760022384246899  0.8746932549217813   T   T   T
  0.9965626318475604  0.5039548080791457  0.9992652115705851   T   T   T
  0.1260935608046922  0.6280009695673987  0.3709413210566825   T   T   T
  0.1222116707523333  0.6272681473584379  0.6224407874260984   T   T   T
  0.1214792164809677  0.6292738038773251  0.8776967402313516   T   T   T
  0.2460137084511241  0.0000809167429962  0.0017754570062671   T   T   T
  0.2446906777439625  0.0003925398084216  0.7480783313922111   T   T   T
  0.2489272260717208  0.2459646606981833  0.7482801628016595   T   T   T
  0.2489796816938727  0.5029702099765577  0.0014006921607248   T   T   T
  0.3786937964932726  0.3724872109210562  0.6234407408716486   T   T   T
  0.3779635369077390  0.3752442922117306  0.8741336938226528   T   T   T
  0.3747322914000680  0.6255137646786446  0.3714736881841246   T   T   T
  0.3772110445029208  0.6249373863842891  0.6222027295143225   T   T   T
  0.3716580171499991  0.8726325536082641  0.1283660371310064   T   T   T
  0.5005642805039723  0.0007011067194481  0.5022637889285565   T   T   T
  0.5020388661969160  0.2492599366444283  0.9980039993290611   T   T   T
  0.4996100511552451  0.7481777528250890  0.0035612896401537   T   T   T
  0.5020537163568244  0.7496173826153647  0.4983149046752073   T   T   T
  0.6225927715124846  0.3776057998432213  0.1248051520643289   T   T   T
  0.6207895554337841  0.3762697429059074  0.3783887233670581   T   T   T
  0.7540758378422208  0.0001099544498185  0.9966054718740102   T   T   T
  0.7523471325790089  0.0016900912126634  0.7479015778331861   T   T   T
  0.7516444094251871  0.2511364577286795  0.9951971895283326   T   T   T
  0.7473249113360940  0.2474797194621985  0.5043941318510814   T   T   T
  0.7505747258240240  0.5010958582690367  0.9991989471773397   T   T   T
  0.7476169801237473  0.5038024097313766  0.2492752344988431   T   T   T
  0.7453616824881658  0.5006244994483929  0.5011947362245904   T   T   T
  0.7523540933460873  0.7477997026159801  0.2494065142372864   T   T   T
  0.8792598018948981  0.1225603445972310  0.1232212699708375   T   T   T
  0.8730791833466010  0.3732935213474889  0.6258830919964992   T   T   T
  0.8765012946638885  0.6256837661827191  0.3741987047352426   T   T   T
  0.8722992430519977  0.6263032898118578  0.6244798140697592   T   T   T
  0.8811498589081250  0.8728636538405575  0.1235280766969237   T   T   T
  0.0031461317848075  0.2460298633247483  0.2501994383404640   T   T   T
  0.9947358070879718  0.4997597384384742  0.7523986591874782   T   T   T
  0.9992203511993685  0.7560487331031952  0.4985236269917103   T   T   T
  0.1242870631551709  0.3773545443014880  0.1262379298173993   T   T   T
  0.1239358351449963  0.3761431217929024  0.3759566348745071   T   T   T
  0.1219125561752721  0.3710447726413641  0.6227379475805879   T   T   T
  0.1216724617453289  0.3728993380298292  0.8746511771181609   T   T   T
  0.2479706419877974  0.2459971010130180  0.0008252565088793   T   T   T
  0.2505199850781425  0.2470510092909449  0.2498912013487036   T   T   T
  0.2524226683772803  0.4990180327129933  0.4992115316615752   T   T   T
  0.2494290037400769  0.5011231004351607  0.7477963166115582   T   T   T
  0.2460060608568678  0.7516763216940670  0.7500699825119392   T   T   T
  0.3733511550742156  0.1226951997793563  0.3774662601668666   T   T   T
  0.3764583617305766  0.1244740969791263  0.8710913067348265   T   T   T
  0.3753731703598122  0.3793008689280827  0.1257564733416722   T   T   T
  0.3766099371777890  0.6247916535580703  0.8769987189943642   T   T   T
  0.3723800740487567  0.8768781743709860  0.6228730070411593   T   T   T
  0.3735255806321803  0.8753413979403614  0.8745930421660553   T   T   T
  0.4995098285783086  0.0016805345601796 -0.0000246333973719   T   T   T
  0.4988505607257793  0.2490487761566887  0.2528485345915665   T   T   T
  0.5031308092560689  0.7501515249633783  0.7458968856654180   T   T   T
  0.6252180727236396  0.1219821452950050  0.1262041007913179   T   T   T
  0.6258274091481530  0.6228181127909114  0.8747345163788811   T   T   T
  0.6254686996687497  0.8731937556364575  0.1272689306309138   T   T   T
  0.6260675472147496  0.8733530140944615  0.3757196779501226   T   T   T
  0.6267601844119479  0.8745151224971518  0.8758209461204653   T   T   T
  0.7539334430003065  0.9980414496670924  0.2541394608518243   T   T   T
  0.7478803776001532  0.2477141337428090  0.2524537340087253   T   T   T
  0.7520065310272518  0.7526555322180835  0.7491382145689254   T   T   T
  0.8785007106417100  0.1233260337985440  0.3794866620972477   T   T   T
  0.8780596493949497  0.3759061515659323  0.1255470332707848   T   T   T
  0.8782460216961816  0.3754398186842586  0.3768975742137490   T   T   T
  0.0046032893625180  0.9980302358987833  0.2514938075064561   T   T   T
  0.0015407276305174  0.9989724750822665  0.5017993096518006   T   T   T
  0.0002191982816292  0.2473852208343368  0.9973333937200345   T   T   T
  0.0007090119040107  0.2450764026385404  0.5025695073834027   T   T   T
  0.9970857503535671  0.2466571177999484  0.7508992742212869   T   T   T
  0.0005011244700665  0.5035574185041514  0.2477869933997385   T   T   T
  0.9987402364445505  0.5017413068979527  0.5004019257374943   T   T   T
  0.1239917724508285  0.1211727816514352  0.1257928645251571   T   T   T
  0.1261411280565931  0.1220256963533517  0.3773933506185856   T   T   T
  0.1267515590180753  0.8764173674218509  0.3738051223095762   T   T   T
  0.1230898977807323  0.8779660796096391  0.6233831009304496   T   T   T
  0.1203662250521664  0.8752699799267450  0.8760140807986582   T   T   T
  0.2470736680681661  0.0006624725608016  0.4999231228233887   T   T   T
  0.2501015436336875  0.2471263895912579  0.4994237384887680   T   T   T
  0.2513476330160564  0.5021067643973095  0.2499746764325463   T   T   T
  0.2459856677132760  0.7515313239675724  0.0021894286956227   T   T   T
  0.3745506838039807  0.1221770942331571  0.1278764636941987   T   T   T
  0.3743520005771944  0.3748978729148701  0.3756253334187146   T   T   T
  0.4981900229741731  0.9988548463649848  0.2521366181702606   T   T   T
  0.5033403220753441  0.0025645012139507  0.7479793408247652   T   T   T
  0.5047123632338748  0.2494918661100917  0.7479331327033497   T   T   T
  0.5017252690504334  0.5007167234204533  0.0008828277520121   T   T   T
  0.5036890613766047  0.4975136663314028  0.7485947318842755   T   T   T
  0.4990026076331587  0.7473922221940560  0.2508341272834458   T   T   T
  0.6238330098016105  0.1220449633399076  0.3784631140757583   T   T   T
  0.6258014824465997  0.6228040147003813  0.6249774232030044   T   T   T
  0.6276149315947607  0.8770725480407070  0.6230842490147799   T   T   T
  0.7514027166176992  0.0001234002274453  0.5027800709121822   T   T   T
  0.7540948571556565  0.7482235001988105  0.9991339035329438   T   T   T
  0.8781363517395790  0.1253352161221486  0.8727281092662053   T   T   T
  0.8734939670088694  0.6279785884597844  0.8750379997045837   T   T   T
  0.8769475777178228  0.8776881205006567  0.6248049995877824   T   T   T
 
  0.00000000E+00  0.00000000E+00  0.00000000E+00
  0.00000000E+00  0.00000000E+00  0.00000000E+00
  0.00000000E+00  0.00000000E+00  0.00000000E+00
  0.00000000E+00  0.00000000E+00  0.00000000E+00
  0.00000000E+00  0.00000000E+00  0.00000000E+00
  0.00000000E+00  0.00000000E+00  0.00000000E+00
  0.00000000E+00  0.00000000E+00  0.00000000E+00
  0.00000000E+00  0.00000000E+00  0.00000000E+00
  0.00000000E+00  0.00000000E+00  0.00000000E+00
  0.00000000E+00  0.00000000E+00  0.00000000E+00
  0.00000000E+00  0.00000000E+00  0.00000000E+00
  0.00000000E+00  0.00000000E+00  0.00000000E+00
  0.00000000E+00  0.00000000E+00  0.00000000E+00
  0.00000000E+00  0.00000000E+00  0.00000000E+00
  0.00000000E+00  0.00000000E+00  0.00000000E+00
  0.00000000E+00  0.00000000E+00  0.00000000E+00
  0.00000000E+00  0.00000000E+00  0.00000000E+00
  0.00000000E+00  0.00000000E+00  0.00000000E+00
  0.00000000E+00  0.00000000E+00  0.00000000E+00
  0.00000000E+00  0.00000000E+00  0.00000000E+00
  0.00000000E+00  0.00000000E+00  0.00000000E+00
  0.00000000E+00  0.00000000E+00  0.00000000E+00
  0.00000000E+00  0.00000000E+00  0.00000000E+00
  0.00000000E+00  0.00000000E+00  0.00000000E+00
  0.00000000E+00  0.00000000E+00  0.00000000E+00
  0.00000000E+00  0.00000000E+00  0.00000000E+00
  0.00000000E+00  0.00000000E+00  0.00000000E+00
  0.00000000E+00  0.00000000E+00  0.00000000E+00
  0.00000000E+00  0.00000000E+00  0.00000000E+00
  0.00000000E+00  0.00000000E+00  0.00000000E+00
  0.00000000E+00  0.00000000E+00  0.00000000E+00
  0.00000000E+00  0.00000000E+00  0.00000000E+00
  0.00000000E+00  0.00000000E+00  0.00000000E+00
  0.00000000E+00  0.00000000E+00  0.00000000E+00
  0.00000000E+00  0.00000000E+00  0.00000000E+00
  0.00000000E+00  0.00000000E+00  0.00000000E+00
  0.00000000E+00  0.00000000E+00  0.00000000E+00
  0.00000000E+00  0.00000000E+00  0.00000000E+00
  0.00000000E+00  0.00000000E+00  0.00000000E+00
  0.00000000E+00  0.00000000E+00  0.00000000E+00
  0.00000000E+00  0.00000000E+00  0.00000000E+00
  0.00000000E+00  0.00000000E+00  0.00000000E+00
  0.00000000E+00  0.00000000E+00  0.00000000E+00
  0.00000000E+00  0.00000000E+00  0.00000000E+00
  0.00000000E+00  0.00000000E+00  0.00000000E+00
  0.00000000E+00  0.00000000E+00  0.00000000E+00
  0.00000000E+00  0.00000000E+00  0.00000000E+00
  0.00000000E+00  0.00000000E+00  0.00000000E+00
  0.00000000E+00  0.00000000E+00  0.00000000E+00
  0.00000000E+00  0.00000000E+00  0.00000000E+00
  0.00000000E+00  0.00000000E+00  0.00000000E+00
  0.00000000E+00  0.00000000E+00  0.00000000E+00
  0.00000000E+00  0.00000000E+00  0.00000000E+00
  0.00000000E+00  0.00000000E+00  0.00000000E+00
  0.00000000E+00  0.00000000E+00  0.00000000E+00
  0.00000000E+00  0.00000000E+00  0.00000000E+00
  0.00000000E+00  0.00000000E+00  0.00000000E+00
  0.00000000E+00  0.00000000E+00  0.00000000E+00
  0.00000000E+00  0.00000000E+00  0.00000000E+00
  0.00000000E+00  0.00000000E+00  0.00000000E+00
  0.00000000E+00  0.00000000E+00  0.00000000E+00
  0.00000000E+00  0.00000000E+00  0.00000000E+00
  0.00000000E+00  0.00000000E+00  0.00000000E+00
  0.00000000E+00  0.00000000E+00  0.00000000E+00
  0.00000000E+00  0.00000000E+00  0.00000000E+00
  0.00000000E+00  0.00000000E+00  0.00000000E+00
  0.00000000E+00  0.00000000E+00  0.00000000E+00
  0.00000000E+00  0.00000000E+00  0.00000000E+00
  0.00000000E+00  0.00000000E+00  0.00000000E+00
  0.00000000E+00  0.00000000E+00  0.00000000E+00
  0.00000000E+00  0.00000000E+00  0.00000000E+00
  0.00000000E+00  0.00000000E+00  0.00000000E+00
  0.00000000E+00  0.00000000E+00  0.00000000E+00
  0.00000000E+00  0.00000000E+00  0.00000000E+00
  0.00000000E+00  0.00000000E+00  0.00000000E+00
  0.00000000E+00  0.00000000E+00  0.00000000E+00
  0.00000000E+00  0.00000000E+00  0.00000000E+00
  0.00000000E+00  0.00000000E+00  0.00000000E+00
  0.00000000E+00  0.00000000E+00  0.00000000E+00
  0.00000000E+00  0.00000000E+00  0.00000000E+00
  0.00000000E+00  0.00000000E+00  0.00000000E+00
  0.00000000E+00  0.00000000E+00  0.00000000E+00
  0.00000000E+00  0.00000000E+00  0.00000000E+00
  0.00000000E+00  0.00000000E+00  0.00000000E+00
  0.00000000E+00  0.00000000E+00  0.00000000E+00
  0.00000000E+00  0.00000000E+00  0.00000000E+00
  0.00000000E+00  0.00000000E+00  0.00000000E+00
  0.00000000E+00  0.00000000E+00  0.00000000E+00
  0.00000000E+00  0.00000000E+00  0.00000000E+00
  0.00000000E+00  0.00000000E+00  0.00000000E+00
  0.00000000E+00  0.00000000E+00  0.00000000E+00
  0.00000000E+00  0.00000000E+00  0.00000000E+00
  0.00000000E+00  0.00000000E+00  0.00000000E+00
  0.00000000E+00  0.00000000E+00  0.00000000E+00
  0.00000000E+00  0.00000000E+00  0.00000000E+00
  0.00000000E+00  0.00000000E+00  0.00000000E+00
  0.00000000E+00  0.00000000E+00  0.00000000E+00
  0.00000000E+00  0.00000000E+00  0.00000000E+00
  0.00000000E+00  0.00000000E+00  0.00000000E+00
  0.00000000E+00  0.00000000E+00  0.00000000E+00
  0.00000000E+00  0.00000000E+00  0.00000000E+00
  0.00000000E+00  0.00000000E+00  0.00000000E+00
  0.00000000E+00  0.00000000E+00  0.00000000E+00
  0.00000000E+00  0.00000000E+00  0.00000000E+00
  0.00000000E+00  0.00000000E+00  0.00000000E+00
  0.00000000E+00  0.00000000E+00  0.00000000E+00
  0.00000000E+00  0.00000000E+00  0.00000000E+00
  0.00000000E+00  0.00000000E+00  0.00000000E+00
  0.00000000E+00  0.00000000E+00  0.00000000E+00
  0.00000000E+00  0.00000000E+00  0.00000000E+00
  0.00000000E+00  0.00000000E+00  0.00000000E+00
  0.00000000E+00  0.00000000E+00  0.00000000E+00
  0.00000000E+00  0.00000000E+00  0.00000000E+00
  0.00000000E+00  0.00000000E+00  0.00000000E+00
  0.00000000E+00  0.00000000E+00  0.00000000E+00
  0.00000000E+00  0.00000000E+00  0.00000000E+00
  0.00000000E+00  0.00000000E+00  0.00000000E+00
  0.00000000E+00  0.00000000E+00  0.00000000E+00
  0.00000000E+00  0.00000000E+00  0.00000000E+00
  0.00000000E+00  0.00000000E+00  0.00000000E+00
  0.00000000E+00  0.00000000E+00  0.00000000E+00
  0.00000000E+00  0.00000000E+00  0.00000000E+00
  0.00000000E+00  0.00000000E+00  0.00000000E+00
  0.00000000E+00  0.00000000E+00  0.00000000E+00
  0.00000000E+00  0.00000000E+00  0.00000000E+00
  0.00000000E+00  0.00000000E+00  0.00000000E+00
  0.00000000E+00  0.00000000E+00  0.00000000E+00
  0.00000000E+00  0.00000000E+00  0.00000000E+00
