0.0                                     
   3.00000000000000     
     4.7011699999999994    0.0000000000000000    0.0000000000000000
     0.0000000000000000    4.2119277933852048    0.0000000000000000
     0.0000000000000000    0.0000000000000000    4.2103222988173412
   Mo   Nb   Ta   W 
    32    32    32    32
Selective dynamics
Direct
  0.0035336070909714  0.9991529672265320  0.9983426587028700   T   T   T
  0.9981827415166930  0.0013108188984908  0.7491601453209178   T   T   T
  0.0000201968099691  0.7517526157919179  0.0001575578456183   T   T   T
  0.0047715528292673  0.7521256369800997  0.2486839202040493   T   T   T
  0.9957787840790852  0.7533259414087414  0.7504156145057841   T   T   T
  0.1203565156101762  0.1243908817399444  0.6240382357595992   T   T   T
  0.1172773741158335  0.1238029433710549  0.8740105587076159   T   T   T
  0.1258429410561353  0.6279859215483216  0.1261804671152294   T   T   T
  0.1247400696516245  0.8740609190112720  0.1264321346482808   T   T   T
  0.2467004321270501  0.9988056742858747  0.2516744797543554   T   T   T
  0.2485206402078524  0.7513884610364646  0.2481296134433413   T   T   T
  0.2473664317827396  0.7528311447029189  0.4986092578519160   T   T   T
  0.3763346538447003  0.1243898143163955  0.6241022958033251   T   T   T
  0.3735756502628988  0.6254349825125777  0.1260029495784200   T   T   T
  0.3707899434468153  0.8751118812014869  0.3746917732609053   T   T   T
  0.5009795002043258  0.2476101821969703  0.5018956931718618   T   T   T
  0.4981651440023360  0.5016372860126026  0.2500276639607336   T   T   T
  0.5021139935977988  0.4992194984323386  0.4996190999990093   T   T   T
  0.6256794764814255  0.1251828329743078  0.6255300231511192   T   T   T
  0.6267069791578410  0.1264171816260401  0.8721115366048020   T   T   T
  0.6225671786752552  0.3741788388175065  0.6266409312373541   T   T   T
  0.6260930244810249  0.3763832244587897  0.8720099282509844   T   T   T
  0.6210978525879479  0.6262234225115274  0.1244235016016507   T   T   T
  0.6191870040137367  0.6259933290940707  0.3743100314618326   T   T   T
  0.7488906446551521  0.2487651757682311  0.7505563095368835   T   T   T
  0.7479403826430465  0.4995043678659302  0.7504865020589416   T   T   T
  0.7504793446304594  0.7518174904091958  0.5007311589113461   T   T   T
  0.8772607836736764  0.1241766042642636  0.6259185080047127   T   T   T
  0.8724143579623951  0.3734245106002869  0.8740369557286813   T   T   T
  0.8792105206797713  0.6269060893031759  0.1240275521179425   T   T   T
  0.8796618755799537  0.8765384003699584  0.3763036540411370   T   T   T
  0.8800298794777472  0.8759179145119559  0.8747601801629811   T   T   T
  0.9950902113814444  0.5037263164000233  0.9993422390034865   T   T   T
  0.1272114326975562  0.6276643394797276  0.3715714645312952   T   T   T
  0.1205225346128092  0.6257854392375848  0.6227980541433815   T   T   T
  0.1190793308417452  0.6277445217174776  0.8771783871580658   T   T   T
  0.2431143767299011  0.0007266308796769  0.0007495895816439   T   T   T
  0.2401563232763208  0.0005712822239601  0.7481649346405852   T   T   T
  0.2486597406573415  0.2469963010395597  0.7482864407702434   T   T   T
  0.2498240153708776  0.5021907713796259  0.0005153662034144   T   T   T
  0.3830718348156589  0.3722011437902402  0.6239513892466141   T   T   T
  0.3820067713510417  0.3746684171626967  0.8735479768093563   T   T   T
  0.3746121610172625  0.6255932323202338  0.3720534449782184   T   T   T
  0.3792643358320290  0.6252639131567630  0.6236595047633583   T   T   T
  0.3685677103918364  0.8726741282942783  0.1274546334095014   T   T   T
  0.5004094408024630  0.0001615662265924  0.5019375335027532   T   T   T
  0.5030389967536576  0.2488958441596283  0.9983129000734623   T   T   T
  0.4993871083457470  0.7485151584681257  0.0033241662555699   T   T   T
  0.5027943761739638  0.7502195600668760  0.4986318679929422   T   T   T
  0.6205336424152980  0.3771101685038678  0.1246370213139372   T   T   T
  0.6169448050461425  0.3755618012047400  0.3775431805724526   T   T   T
  0.7567033488072924 -0.0000829009794195  0.9981838343860046   T   T   T
  0.7547663881516059  0.0020489965275230  0.7482478873028718   T   T   T
  0.7515936520506270  0.2508020097056719  0.9966801652976561   T   T   T
  0.7454579300089401  0.2474042209622737  0.5029164137448112   T   T   T
  0.7512104524844327  0.5011271475543375  0.9997467587667626   T   T   T
  0.7453276983169940  0.5030366704930108  0.2489992680085804   T   T   T
  0.7421676783868922  0.5005207634575399  0.4996707112603920   T   T   T
  0.7528158956113826  0.7483473673208759  0.2491269839870659   T   T   T
  0.8818338391201485  0.1236488407529145  0.1242131448664456   T   T   T
  0.8715643370252798  0.3730276831551547  0.6250209264189701   T   T   T
  0.8775339190752681  0.6252692397385077  0.3739174653231482   T   T   T
  0.8712529233675513  0.6261976336852562  0.6237907759010650   T   T   T
  0.8855794686689945  0.8733070914110237  0.1245065174347600   T   T   T
  0.0062346482783888  0.2467642464943164  0.2503732767154561   T   T   T
  0.9914219650452654  0.4994498025355458  0.7520036642417826   T   T   T
  0.9991140059700461  0.7555518325478905  0.4986568241678970   T   T   T
  0.1244853948747664  0.3780855874450275  0.1259576404724522   T   T   T
  0.1243287467560926  0.3762500260396657  0.3767411998389821   T   T   T
  0.1200523680912734  0.3717555100179308  0.6233544457643463   T   T   T
  0.1191401437870965  0.3733431689322745  0.8740772984448716   T   T   T
  0.2474000792946594  0.2468326574563894 -0.0001013684756324   T   T   T
  0.2502499401554121  0.2479115437183604  0.2495300939119789   T   T   T
  0.2542452889560221  0.4980273572350850  0.5004481302054863   T   T   T
  0.2500138843043838  0.5006740635697950  0.7477577247362589   T   T   T
  0.2434938001502185  0.7507213020343703  0.7506595579413463   T   T   T
  0.3712900068186786  0.1224215979037960  0.3776638827503573   T   T   T
  0.3775809109199962  0.1237525943006693  0.8710501805290842   T   T   T
  0.3763110254438558  0.3785511464695012  0.1253642511648008   T   T   T
  0.3783670403347980  0.6254281449719110  0.8764672940269175   T   T   T
  0.3709267933211586  0.8766584638795273  0.6238125415042803   T   T   T
  0.3729851463598543  0.8758374669438058  0.8735126751808144   T   T   T
  0.4986093689937040  0.0007552699369809  0.0004269296919679   T   T   T
  0.4964072480696992  0.2477581094920943  0.2524653516277536   T   T   T
  0.5060462128130914  0.7512624402735220  0.7460702601826567   T   T   T
  0.6244616498032757  0.1210747863318205  0.1263291946213638   T   T   T
  0.6276243054978095  0.6241251985356043  0.8752761506417626   T   T   T
  0.6247354989802770  0.8733710010482938  0.1275317349701453   T   T   T
  0.6259218364456616  0.8737520108453182  0.3751987007265671   T   T   T
  0.6289232526995837  0.8748921140578373  0.8768154701970308   T   T   T
  0.7554085242598688  0.9986127439276596  0.2538702781038027   T   T   T
  0.7467239295209671  0.2476687727438604  0.2523447349806223   T   T   T
  0.7528496789914771  0.7529163142273757  0.7494711201454483   T   T   T
  0.8808528163617011  0.1241003820429061  0.3792607147029515   T   T   T
  0.8790258185382568  0.3759843161786563  0.1266129719341564   T   T   T
  0.8792610180597680  0.3751921706414117  0.3764313683255187   T   T   T
  0.0074004695469397  0.9987909846340735  0.2519842934922145   T   T   T
  0.0031319507597912  0.9989771948350826  0.5015191724398105   T   T   T
  0.0002216989360718  0.2477260837931886  0.9979896043864357   T   T   T
  0.0012941340256042  0.2452823428768015  0.5024053888159272   T   T   T
  0.9956431341488169  0.2472124186177162  0.7507123440451717   T   T   T
  0.0014611307703624  0.5035345993734313  0.2483652878101061   T   T   T
  0.9984456793107701  0.5018293747535445  0.5004145804538973   T   T   T
  0.1230903783415932  0.1226033250778451  0.1256051698187214   T   T   T
  0.1270869325711431  0.1226663280548144  0.3774198126166238   T   T   T
  0.1277808975931566  0.8761973176132741  0.3742601738742511   T   T   T
  0.1218380644335490  0.8772218775421748  0.6230435420883156   T   T   T
  0.1172680053583259  0.8750625585642353  0.8754379309923375   T   T   T
  0.2454816099986275  0.0009646101688951  0.5005658493561440   T   T   T
  0.2503159593539258  0.2474933818295560  0.4997735185875300   T   T   T
  0.2529463600487780  0.5014887843124247  0.2501788405694760   T   T   T
  0.2439609583513427  0.7512752077320169  0.0009813749902456   T   T   T
  0.3734727591343796  0.1227256994944568  0.1269863885134464   T   T   T
  0.3749934698929794  0.3742105982782357  0.3758349780268597   T   T   T
  0.4958045051901109  0.9984916793715598  0.2520150909689474   T   T   T
  0.5062529859609264  0.0017859029603246  0.7478500345307852   T   T   T
  0.5084934766850142  0.2487839802570015  0.7480196959733655   T   T   T
  0.5031717203297837  0.5011141001954786  0.0003323133798121   T   T   T
  0.5078866821133020  0.4987150093054932  0.7491437890163899   T   T   T
  0.4974946862618506  0.7484507343530492  0.2509491688164703   T   T   T
  0.6215370552218725  0.1212498142701914  0.3777262763227500   T   T   T
  0.6266845716156395  0.6236882144149132  0.6252470397468198   T   T   T
  0.6298066488779709  0.8771303972245615  0.6230425432981890   T   T   T
  0.7512192025072510  0.0000514728818076  0.5019305998927992   T   T   T
  0.7560516901159546  0.7483975224076584  0.9996620318554632   T   T   T
  0.8805150037051346  0.1255582242204249  0.8732025515423060   T   T   T
  0.8727804038948701  0.6276358982309559  0.8749005740228278   T   T   T
  0.8776092705228741  0.8775099668300342  0.6243639056293057   T   T   T
 
  0.00000000E+00  0.00000000E+00  0.00000000E+00
  0.00000000E+00  0.00000000E+00  0.00000000E+00
  0.00000000E+00  0.00000000E+00  0.00000000E+00
  0.00000000E+00  0.00000000E+00  0.00000000E+00
  0.00000000E+00  0.00000000E+00  0.00000000E+00
  0.00000000E+00  0.00000000E+00  0.00000000E+00
  0.00000000E+00  0.00000000E+00  0.00000000E+00
  0.00000000E+00  0.00000000E+00  0.00000000E+00
  0.00000000E+00  0.00000000E+00  0.00000000E+00
  0.00000000E+00  0.00000000E+00  0.00000000E+00
  0.00000000E+00  0.00000000E+00  0.00000000E+00
  0.00000000E+00  0.00000000E+00  0.00000000E+00
  0.00000000E+00  0.00000000E+00  0.00000000E+00
  0.00000000E+00  0.00000000E+00  0.00000000E+00
  0.00000000E+00  0.00000000E+00  0.00000000E+00
  0.00000000E+00  0.00000000E+00  0.00000000E+00
  0.00000000E+00  0.00000000E+00  0.00000000E+00
  0.00000000E+00  0.00000000E+00  0.00000000E+00
  0.00000000E+00  0.00000000E+00  0.00000000E+00
  0.00000000E+00  0.00000000E+00  0.00000000E+00
  0.00000000E+00  0.00000000E+00  0.00000000E+00
  0.00000000E+00  0.00000000E+00  0.00000000E+00
  0.00000000E+00  0.00000000E+00  0.00000000E+00
  0.00000000E+00  0.00000000E+00  0.00000000E+00
  0.00000000E+00  0.00000000E+00  0.00000000E+00
  0.00000000E+00  0.00000000E+00  0.00000000E+00
  0.00000000E+00  0.00000000E+00  0.00000000E+00
  0.00000000E+00  0.00000000E+00  0.00000000E+00
  0.00000000E+00  0.00000000E+00  0.00000000E+00
  0.00000000E+00  0.00000000E+00  0.00000000E+00
  0.00000000E+00  0.00000000E+00  0.00000000E+00
  0.00000000E+00  0.00000000E+00  0.00000000E+00
  0.00000000E+00  0.00000000E+00  0.00000000E+00
  0.00000000E+00  0.00000000E+00  0.00000000E+00
  0.00000000E+00  0.00000000E+00  0.00000000E+00
  0.00000000E+00  0.00000000E+00  0.00000000E+00
  0.00000000E+00  0.00000000E+00  0.00000000E+00
  0.00000000E+00  0.00000000E+00  0.00000000E+00
  0.00000000E+00  0.00000000E+00  0.00000000E+00
  0.00000000E+00  0.00000000E+00  0.00000000E+00
  0.00000000E+00  0.00000000E+00  0.00000000E+00
  0.00000000E+00  0.00000000E+00  0.00000000E+00
  0.00000000E+00  0.00000000E+00  0.00000000E+00
  0.00000000E+00  0.00000000E+00  0.00000000E+00
  0.00000000E+00  0.00000000E+00  0.00000000E+00
  0.00000000E+00  0.00000000E+00  0.00000000E+00
  0.00000000E+00  0.00000000E+00  0.00000000E+00
  0.00000000E+00  0.00000000E+00  0.00000000E+00
  0.00000000E+00  0.00000000E+00  0.00000000E+00
  0.00000000E+00  0.00000000E+00  0.00000000E+00
  0.00000000E+00  0.00000000E+00  0.00000000E+00
  0.00000000E+00  0.00000000E+00  0.00000000E+00
  0.00000000E+00  0.00000000E+00  0.00000000E+00
  0.00000000E+00  0.00000000E+00  0.00000000E+00
  0.00000000E+00  0.00000000E+00  0.00000000E+00
  0.00000000E+00  0.00000000E+00  0.00000000E+00
  0.00000000E+00  0.00000000E+00  0.00000000E+00
  0.00000000E+00  0.00000000E+00  0.00000000E+00
  0.00000000E+00  0.00000000E+00  0.00000000E+00
  0.00000000E+00  0.00000000E+00  0.00000000E+00
  0.00000000E+00  0.00000000E+00  0.00000000E+00
  0.00000000E+00  0.00000000E+00  0.00000000E+00
  0.00000000E+00  0.00000000E+00  0.00000000E+00
  0.00000000E+00  0.00000000E+00  0.00000000E+00
  0.00000000E+00  0.00000000E+00  0.00000000E+00
  0.00000000E+00  0.00000000E+00  0.00000000E+00
  0.00000000E+00  0.00000000E+00  0.00000000E+00
  0.00000000E+00  0.00000000E+00  0.00000000E+00
  0.00000000E+00  0.00000000E+00  0.00000000E+00
  0.00000000E+00  0.00000000E+00  0.00000000E+00
  0.00000000E+00  0.00000000E+00  0.00000000E+00
  0.00000000E+00  0.00000000E+00  0.00000000E+00
  0.00000000E+00  0.00000000E+00  0.00000000E+00
  0.00000000E+00  0.00000000E+00  0.00000000E+00
  0.00000000E+00  0.00000000E+00  0.00000000E+00
  0.00000000E+00  0.00000000E+00  0.00000000E+00
  0.00000000E+00  0.00000000E+00  0.00000000E+00
  0.00000000E+00  0.00000000E+00  0.00000000E+00
  0.00000000E+00  0.00000000E+00  0.00000000E+00
  0.00000000E+00  0.00000000E+00  0.00000000E+00
  0.00000000E+00  0.00000000E+00  0.00000000E+00
  0.00000000E+00  0.00000000E+00  0.00000000E+00
  0.00000000E+00  0.00000000E+00  0.00000000E+00
  0.00000000E+00  0.00000000E+00  0.00000000E+00
  0.00000000E+00  0.00000000E+00  0.00000000E+00
  0.00000000E+00  0.00000000E+00  0.00000000E+00
  0.00000000E+00  0.00000000E+00  0.00000000E+00
  0.00000000E+00  0.00000000E+00  0.00000000E+00
  0.00000000E+00  0.00000000E+00  0.00000000E+00
  0.00000000E+00  0.00000000E+00  0.00000000E+00
  0.00000000E+00  0.00000000E+00  0.00000000E+00
  0.00000000E+00  0.00000000E+00  0.00000000E+00
  0.00000000E+00  0.00000000E+00  0.00000000E+00
  0.00000000E+00  0.00000000E+00  0.00000000E+00
  0.00000000E+00  0.00000000E+00  0.00000000E+00
  0.00000000E+00  0.00000000E+00  0.00000000E+00
  0.00000000E+00  0.00000000E+00  0.00000000E+00
  0.00000000E+00  0.00000000E+00  0.00000000E+00
  0.00000000E+00  0.00000000E+00  0.00000000E+00
  0.00000000E+00  0.00000000E+00  0.00000000E+00
  0.00000000E+00  0.00000000E+00  0.00000000E+00
  0.00000000E+00  0.00000000E+00  0.00000000E+00
  0.00000000E+00  0.00000000E+00  0.00000000E+00
  0.00000000E+00  0.00000000E+00  0.00000000E+00
  0.00000000E+00  0.00000000E+00  0.00000000E+00
  0.00000000E+00  0.00000000E+00  0.00000000E+00
  0.00000000E+00  0.00000000E+00  0.00000000E+00
  0.00000000E+00  0.00000000E+00  0.00000000E+00
  0.00000000E+00  0.00000000E+00  0.00000000E+00
  0.00000000E+00  0.00000000E+00  0.00000000E+00
  0.00000000E+00  0.00000000E+00  0.00000000E+00
  0.00000000E+00  0.00000000E+00  0.00000000E+00
  0.00000000E+00  0.00000000E+00  0.00000000E+00
  0.00000000E+00  0.00000000E+00  0.00000000E+00
  0.00000000E+00  0.00000000E+00  0.00000000E+00
  0.00000000E+00  0.00000000E+00  0.00000000E+00
  0.00000000E+00  0.00000000E+00  0.00000000E+00
  0.00000000E+00  0.00000000E+00  0.00000000E+00
  0.00000000E+00  0.00000000E+00  0.00000000E+00
  0.00000000E+00  0.00000000E+00  0.00000000E+00
  0.00000000E+00  0.00000000E+00  0.00000000E+00
  0.00000000E+00  0.00000000E+00  0.00000000E+00
  0.00000000E+00  0.00000000E+00  0.00000000E+00
  0.00000000E+00  0.00000000E+00  0.00000000E+00
  0.00000000E+00  0.00000000E+00  0.00000000E+00
  0.00000000E+00  0.00000000E+00  0.00000000E+00
  0.00000000E+00  0.00000000E+00  0.00000000E+00
  0.00000000E+00  0.00000000E+00  0.00000000E+00
