0.0                                     
   3.00000000000000     
     4.7874299999999996    0.0000000000000000    0.0000000000000000
     0.0000000000000000    4.1889971976636415    0.0000000000000000
     0.0000000000000000    0.0000000000000000    4.1855764127191568
   Mo   Nb   Ta   W 
    32    32    32    32
Selective dynamics
Direct
  0.0040360212731499  0.9993229991402633  0.9986583941796754   T   T   T
  0.9975667383735097  0.0010911680142853  0.7491740181131832   T   T   T
  0.0005816719737018  0.7516030707315920 -0.0002557488012321   T   T   T
  0.0062069408103089  0.7520952284961827  0.2485336060432224   T   T   T
  0.9949212489194943  0.7531165467695125  0.7500381242544993   T   T   T
  0.1186085652299557  0.1246206564193762  0.6240366253188064   T   T   T
  0.1152999662325524  0.1242913232318191  0.8740736769112121   T   T   T
  0.1265141254065445  0.6277179094620026  0.1260377208553801   T   T   T
  0.1248125592070678  0.8741773043928641  0.1262225723816772   T   T   T
  0.2457943206586173  0.9987995651922196  0.2514561894636630   T   T   T
  0.2479655930266760  0.7509191175418096  0.2480778730848013   T   T   T
  0.2468193105171472  0.7525120198501282  0.4990177388077408   T   T   T
  0.3775701309722484  0.1242542678124703  0.6243383122986385   T   T   T
  0.3733276980446506  0.6251309029518208  0.1253308216568889   T   T   T
  0.3693257285303239  0.8747695154572567  0.3753245149348419   T   T   T
  0.5011889274229900  0.2472818833258560  0.5014897469813596   T   T   T
  0.4967986755156314  0.5009517321240021  0.2497078759970263   T   T   T
  0.5021954598084892  0.4994808429015718  0.4995124875335160   T   T   T
  0.6264276698037780  0.1253681519477039  0.6255899402621007   T   T   T
  0.6277783733631481  0.1266226882837603  0.8728954921434148   T   T   T
  0.6226808418587402  0.3747972067975336  0.6264907312344603   T   T   T
  0.6269063913524151  0.3769127647977714  0.8724557358389504   T   T   T
  0.6192699082201101  0.6262904621983585  0.1242766363502905   T   T   T
  0.6176319653865099  0.6258128287515277  0.3743217026586974   T   T   T
  0.7493232554660316  0.2491877071022971  0.7509762770309437   T   T   T
  0.7480829653927930  0.4998341496025930  0.7504489278394459   T   T   T
  0.7504329814653735  0.7517039460332335  0.5004202247482256   T   T   T
  0.8775217344937528  0.1243865609570731  0.6258090507772234   T   T   T
  0.8718753091541598  0.3735901990378899  0.8742232923916612   T   T   T
  0.8809864996768902  0.6268651470360465  0.1239586709716717   T   T   T
  0.8803623444930883  0.8764414580503437  0.3762561473689412   T   T   T
  0.8806784724581251  0.8759691688299095  0.8749839258909818   T   T   T
  0.9947767822616544  0.5035649572572197  0.9993499672082226   T   T   T
  0.1278687437918051  0.6272315292822772  0.3720402388936747   T   T   T
  0.1196971531911232  0.6252858834936920  0.6230665362957284   T   T   T
  0.1179258265423024  0.6273110582222381  0.8768571147086095   T   T   T
  0.2419775456908635  0.0010462209307754  0.0000502720987737   T   T   T
  0.2372713363677621  0.0011452344978455  0.7483081607204501   T   T   T
  0.2482278244896020  0.2474305831362239  0.7478469204727316   T   T   T
  0.2501095027779653  0.5019164573755176 -0.0003521745871369   T   T   T
  0.3854207962830640  0.3721050316232157  0.6241490865629037   T   T   T
  0.3839889199833206  0.3745342498559844  0.8727809780168674   T   T   T
  0.3744337168116459  0.6253142064315522  0.3721932455326808   T   T   T
  0.3803808596640982  0.6258543102308256  0.6239763732108203   T   T   T
  0.3669782804234177  0.8723752308738413  0.1269836420148039   T   T   T
  0.5006035328131112 -0.0001003451857325  0.5022564112398659   T   T   T
  0.5035957938226899  0.2483880152006626  0.9983446062595946   T   T   T
  0.4990127978744675  0.7491172053168422  0.0027322188632407   T   T   T
  0.5029371047572371  0.7506651093132154  0.4990505424637438   T   T   T
  0.6190200195813472  0.3768296326641770  0.1247471409113172   T   T   T
  0.6143578343594680  0.3747379464220456  0.3770972490654968   T   T   T
  0.7578988599826156 -0.0003595742873489  0.9993576475243678   T   T   T
  0.7560148631292863  0.0025465516932309  0.7486175149356976   T   T   T
  0.7515509268109511  0.2508146275340904  0.9979090165386953   T   T   T
  0.7446786103172652  0.2474017080678864  0.5022233451776643   T   T   T
  0.7517082296944947  0.5017952246802638  0.0008211132211868   T   T   T
  0.7437491508100522  0.5018378867575874  0.2490511285502361   T   T   T
  0.7410193769416241  0.5007190479787503  0.4986684762082132   T   T   T
  0.7536234041821323  0.7475993454825579  0.2488597957257340   T   T   T
  0.8828441885308808  0.1238094639612672  0.1249476925191393   T   T   T
  0.8706401658743579  0.3732287167007024  0.6243767796169798   T   T   T
  0.8780509067134091  0.6247077199843004  0.3734973764276245   T   T   T
  0.8708002563387460  0.6264874311991411  0.6230794993558189   T   T   T
  0.8870965533857132  0.8732488856274687  0.1251049526172234   T   T   T
  0.0076539388525929  0.2471496043885990  0.2504256044041397   T   T   T
  0.9895074520485305  0.4993226479988539  0.7516096992532415   T   T   T
  0.9994170622932050  0.7552651175481355  0.4985735510588892   T   T   T
  0.1247251333641009  0.3783747940751571  0.1252718126187711   T   T   T
  0.1248397505082346  0.3762834055633640  0.3770022339034914   T   T   T
  0.1188504394860968  0.3721730559496617  0.6238198243611008   T   T   T
  0.1182607100757776  0.3736166726861440  0.8735321728797744   T   T   T
  0.2476445878532600  0.2469778080290639 -0.0009330657359459   T   T   T
  0.2498850957273282  0.2478255997219848  0.2489329874645415   T   T   T
  0.2548436543921694  0.4977001205939767  0.5011922564872827   T   T   T
  0.2508749799892537  0.5004156706931775  0.7478044916940969   T   T   T
  0.2422719083109053  0.7504745957991162  0.7508339060596265   T   T   T
  0.3699226570835776  0.1218110190504012  0.3779707517615996   T   T   T
  0.3785895958332990  0.1233788725116999  0.8701161620270399   T   T   T
  0.3766220012767504  0.3780344010070389  0.1246459019964514   T   T   T
  0.3796689957825535  0.6260594196222279  0.8756606782617108   T   T   T
  0.3696585326581956  0.8772371679655656  0.6245565558836937   T   T   T
  0.3725105592732690  0.8764510129853866  0.8726874208916048   T   T   T
  0.4982193656683785  0.0004098825171253  0.0008303010336841   T   T   T
  0.4944106005376135  0.2465569077096586  0.2524362475930398   T   T   T
  0.5078279097370274  0.7528209446904356  0.7459766481153550   T   T   T
  0.6238706624634930  0.1200310283786910  0.1271355739800609   T   T   T
  0.6288377783488330  0.6248806437741664  0.8755920947448922   T   T   T
  0.6246206936890475  0.8731405227365060  0.1280908688079784   T   T   T
  0.6263043055516387  0.8736268918408968  0.3747831498941157   T   T   T
  0.6305251592029651  0.8753096302882205  0.8778266248598529   T   T   T
  0.7563540519911198  0.9987791560267923  0.2542957962597727   T   T   T
  0.7461065957440093  0.2473465626482777  0.2525448095550866   T   T   T
  0.7538037237656545  0.7532983941297663  0.7496257768869422   T   T   T
  0.8817548691670680  0.1244069468143592  0.3793018075565677   T   T   T
  0.8792069154586275  0.3759648512642232  0.1276180395649127   T   T   T
  0.8796523421490492  0.3749120507420832  0.3759359689252669   T   T   T
  0.0085718141603052  0.9989676177346170  0.2522394897041256   T   T   T
  0.0036353501991440  0.9988773263885322  0.5013092192452668   T   T   T
 -0.0000190563320133  0.2481302174100879  0.9983452090923877   T   T   T
  0.0012074408856951  0.2456230495325134  0.5022190334378013   T   T   T
  0.9944621119449275  0.2475046582854615  0.7507039174576495   T   T   T
  0.0024277302884585  0.5033136771548130  0.2484143631424323   T   T   T
  0.9982900800268015  0.5019375328992285  0.5002145772580575   T   T   T
  0.1227874776543124  0.1230384118014717  0.1253284395862601   T   T   T
  0.1273185180883817  0.1230882431730289  0.3775509689810855   T   T   T
  0.1281092755190898  0.8762039854970601  0.3746011388825222   T   T   T
  0.1208385475957277  0.8769561318562401  0.6233123389663918   T   T   T
  0.1158363679527567  0.8748759071592556  0.8753575341413414   T   T   T
  0.2440604772239029  0.0011391290109248  0.5009463899439351   T   T   T
  0.2501001181711973  0.2477635129590653  0.5001303157241334   T   T   T
  0.2534137019981854  0.5010391557396607  0.2501354339081333   T   T   T
  0.2435994719748525  0.7511304407281636  0.0002138940540926   T   T   T
  0.3730568375294269  0.1223451574213042  0.1265218609656854   T   T   T
  0.3747060653184868  0.3735025564788796  0.3755514800680667   T   T   T
  0.4938213591381594  0.9977137555735260  0.2521197898612095   T   T   T
  0.5088280177082192  0.0015547371080677  0.7482554140447542   T   T   T
  0.5108508021357209  0.2486774553274139  0.7481549411967394   T   T   T
  0.5036941299878879  0.5013357815772931  0.0000255813826927   T   T   T
  0.5098156904947231  0.4996269295610425  0.7491808706181873   T   T   T
  0.4963793213011276  0.7486269427525141  0.2510122058119449   T   T   T
  0.6203982905340494  0.1209400432190058  0.3776962446393886   T   T   T
  0.6275087675769064  0.6244656813074504  0.6253085881589239   T   T   T
  0.6318414059038808  0.8774423154090712  0.6230830120175911   T   T   T
  0.7513484336656158 -0.0000238533632668  0.5016184414755900   T   T   T
  0.7570364366334505  0.7485609462805497  0.9999937936451344   T   T   T
  0.8808980349995555  0.1257648322125481  0.8737938887865135   T   T   T
  0.8724015850349918  0.6277263326960476  0.8749962866827375   T   T   T
  0.8777811076960285  0.8776079437942945  0.6240945101777003   T   T   T
 
  0.00000000E+00  0.00000000E+00  0.00000000E+00
  0.00000000E+00  0.00000000E+00  0.00000000E+00
  0.00000000E+00  0.00000000E+00  0.00000000E+00
  0.00000000E+00  0.00000000E+00  0.00000000E+00
  0.00000000E+00  0.00000000E+00  0.00000000E+00
  0.00000000E+00  0.00000000E+00  0.00000000E+00
  0.00000000E+00  0.00000000E+00  0.00000000E+00
  0.00000000E+00  0.00000000E+00  0.00000000E+00
  0.00000000E+00  0.00000000E+00  0.00000000E+00
  0.00000000E+00  0.00000000E+00  0.00000000E+00
  0.00000000E+00  0.00000000E+00  0.00000000E+00
  0.00000000E+00  0.00000000E+00  0.00000000E+00
  0.00000000E+00  0.00000000E+00  0.00000000E+00
  0.00000000E+00  0.00000000E+00  0.00000000E+00
  0.00000000E+00  0.00000000E+00  0.00000000E+00
  0.00000000E+00  0.00000000E+00  0.00000000E+00
  0.00000000E+00  0.00000000E+00  0.00000000E+00
  0.00000000E+00  0.00000000E+00  0.00000000E+00
  0.00000000E+00  0.00000000E+00  0.00000000E+00
  0.00000000E+00  0.00000000E+00  0.00000000E+00
  0.00000000E+00  0.00000000E+00  0.00000000E+00
  0.00000000E+00  0.00000000E+00  0.00000000E+00
  0.00000000E+00  0.00000000E+00  0.00000000E+00
  0.00000000E+00  0.00000000E+00  0.00000000E+00
  0.00000000E+00  0.00000000E+00  0.00000000E+00
  0.00000000E+00  0.00000000E+00  0.00000000E+00
  0.00000000E+00  0.00000000E+00  0.00000000E+00
  0.00000000E+00  0.00000000E+00  0.00000000E+00
  0.00000000E+00  0.00000000E+00  0.00000000E+00
  0.00000000E+00  0.00000000E+00  0.00000000E+00
  0.00000000E+00  0.00000000E+00  0.00000000E+00
  0.00000000E+00  0.00000000E+00  0.00000000E+00
  0.00000000E+00  0.00000000E+00  0.00000000E+00
  0.00000000E+00  0.00000000E+00  0.00000000E+00
  0.00000000E+00  0.00000000E+00  0.00000000E+00
  0.00000000E+00  0.00000000E+00  0.00000000E+00
  0.00000000E+00  0.00000000E+00  0.00000000E+00
  0.00000000E+00  0.00000000E+00  0.00000000E+00
  0.00000000E+00  0.00000000E+00  0.00000000E+00
  0.00000000E+00  0.00000000E+00  0.00000000E+00
  0.00000000E+00  0.00000000E+00  0.00000000E+00
  0.00000000E+00  0.00000000E+00  0.00000000E+00
  0.00000000E+00  0.00000000E+00  0.00000000E+00
  0.00000000E+00  0.00000000E+00  0.00000000E+00
  0.00000000E+00  0.00000000E+00  0.00000000E+00
  0.00000000E+00  0.00000000E+00  0.00000000E+00
  0.00000000E+00  0.00000000E+00  0.00000000E+00
  0.00000000E+00  0.00000000E+00  0.00000000E+00
  0.00000000E+00  0.00000000E+00  0.00000000E+00
  0.00000000E+00  0.00000000E+00  0.00000000E+00
  0.00000000E+00  0.00000000E+00  0.00000000E+00
  0.00000000E+00  0.00000000E+00  0.00000000E+00
  0.00000000E+00  0.00000000E+00  0.00000000E+00
  0.00000000E+00  0.00000000E+00  0.00000000E+00
  0.00000000E+00  0.00000000E+00  0.00000000E+00
  0.00000000E+00  0.00000000E+00  0.00000000E+00
  0.00000000E+00  0.00000000E+00  0.00000000E+00
  0.00000000E+00  0.00000000E+00  0.00000000E+00
  0.00000000E+00  0.00000000E+00  0.00000000E+00
  0.00000000E+00  0.00000000E+00  0.00000000E+00
  0.00000000E+00  0.00000000E+00  0.00000000E+00
  0.00000000E+00  0.00000000E+00  0.00000000E+00
  0.00000000E+00  0.00000000E+00  0.00000000E+00
  0.00000000E+00  0.00000000E+00  0.00000000E+00
  0.00000000E+00  0.00000000E+00  0.00000000E+00
  0.00000000E+00  0.00000000E+00  0.00000000E+00
  0.00000000E+00  0.00000000E+00  0.00000000E+00
  0.00000000E+00  0.00000000E+00  0.00000000E+00
  0.00000000E+00  0.00000000E+00  0.00000000E+00
  0.00000000E+00  0.00000000E+00  0.00000000E+00
  0.00000000E+00  0.00000000E+00  0.00000000E+00
  0.00000000E+00  0.00000000E+00  0.00000000E+00
  0.00000000E+00  0.00000000E+00  0.00000000E+00
  0.00000000E+00  0.00000000E+00  0.00000000E+00
  0.00000000E+00  0.00000000E+00  0.00000000E+00
  0.00000000E+00  0.00000000E+00  0.00000000E+00
  0.00000000E+00  0.00000000E+00  0.00000000E+00
  0.00000000E+00  0.00000000E+00  0.00000000E+00
  0.00000000E+00  0.00000000E+00  0.00000000E+00
  0.00000000E+00  0.00000000E+00  0.00000000E+00
  0.00000000E+00  0.00000000E+00  0.00000000E+00
  0.00000000E+00  0.00000000E+00  0.00000000E+00
  0.00000000E+00  0.00000000E+00  0.00000000E+00
  0.00000000E+00  0.00000000E+00  0.00000000E+00
  0.00000000E+00  0.00000000E+00  0.00000000E+00
  0.00000000E+00  0.00000000E+00  0.00000000E+00
  0.00000000E+00  0.00000000E+00  0.00000000E+00
  0.00000000E+00  0.00000000E+00  0.00000000E+00
  0.00000000E+00  0.00000000E+00  0.00000000E+00
  0.00000000E+00  0.00000000E+00  0.00000000E+00
  0.00000000E+00  0.00000000E+00  0.00000000E+00
  0.00000000E+00  0.00000000E+00  0.00000000E+00
  0.00000000E+00  0.00000000E+00  0.00000000E+00
  0.00000000E+00  0.00000000E+00  0.00000000E+00
  0.00000000E+00  0.00000000E+00  0.00000000E+00
  0.00000000E+00  0.00000000E+00  0.00000000E+00
  0.00000000E+00  0.00000000E+00  0.00000000E+00
  0.00000000E+00  0.00000000E+00  0.00000000E+00
  0.00000000E+00  0.00000000E+00  0.00000000E+00
  0.00000000E+00  0.00000000E+00  0.00000000E+00
  0.00000000E+00  0.00000000E+00  0.00000000E+00
  0.00000000E+00  0.00000000E+00  0.00000000E+00
  0.00000000E+00  0.00000000E+00  0.00000000E+00
  0.00000000E+00  0.00000000E+00  0.00000000E+00
  0.00000000E+00  0.00000000E+00  0.00000000E+00
  0.00000000E+00  0.00000000E+00  0.00000000E+00
  0.00000000E+00  0.00000000E+00  0.00000000E+00
  0.00000000E+00  0.00000000E+00  0.00000000E+00
  0.00000000E+00  0.00000000E+00  0.00000000E+00
  0.00000000E+00  0.00000000E+00  0.00000000E+00
  0.00000000E+00  0.00000000E+00  0.00000000E+00
  0.00000000E+00  0.00000000E+00  0.00000000E+00
  0.00000000E+00  0.00000000E+00  0.00000000E+00
  0.00000000E+00  0.00000000E+00  0.00000000E+00
  0.00000000E+00  0.00000000E+00  0.00000000E+00
  0.00000000E+00  0.00000000E+00  0.00000000E+00
  0.00000000E+00  0.00000000E+00  0.00000000E+00
  0.00000000E+00  0.00000000E+00  0.00000000E+00
  0.00000000E+00  0.00000000E+00  0.00000000E+00
  0.00000000E+00  0.00000000E+00  0.00000000E+00
  0.00000000E+00  0.00000000E+00  0.00000000E+00
  0.00000000E+00  0.00000000E+00  0.00000000E+00
  0.00000000E+00  0.00000000E+00  0.00000000E+00
  0.00000000E+00  0.00000000E+00  0.00000000E+00
  0.00000000E+00  0.00000000E+00  0.00000000E+00
  0.00000000E+00  0.00000000E+00  0.00000000E+00
  0.00000000E+00  0.00000000E+00  0.00000000E+00
  0.00000000E+00  0.00000000E+00  0.00000000E+00
