0.0                                     
   3.00000000000000     
     4.3129999999999997    0.0000000000000000    0.0000000000000000
     0.0000000000000000    4.3167751750443220    0.0000000000000000
     0.0000000000000000    0.0000000000000000    4.3162948456846149
   Mo   Nb   Ta   W 
    32    32    32    32
Selective dynamics
Direct
  0.0022703182012774  0.9989663316972559  0.9979890487446667   T   T   T
  0.9987090938788614  0.0013722093901450  0.7494454464459543   T   T   T
  0.9998309611849816  0.7524302964280921  0.0001876323538217   T   T   T
  0.0025270402846675  0.7522252653463894  0.2481810666781097   T   T   T
  0.9977999817935308  0.7544501251029865  0.7508333581554928   T   T   T
  0.1230498774403653  0.1237795377841439  0.6237808257776756   T   T   T
  0.1212016506704907  0.1230211975666900  0.8742240345690213   T   T   T
  0.1255695054509038  0.6287477209333879  0.1266675229622881   T   T   T
  0.1249219932464731  0.8737800265535145  0.1267807450620307   T   T   T
  0.2489958635970970  0.9982852121284734  0.2514637028321899   T   T   T
  0.2496657040479027  0.7518236598524694  0.2483449810367182   T   T   T
  0.2484518771710926  0.7534427381878009  0.4977475184529390   T   T   T
  0.3754093034383536  0.1250214840499782  0.6234343174249714   T   T   T
  0.3739341082013963  0.6253731524066108  0.1269184574719609   T   T   T
  0.3731916458267941  0.8749695497384270  0.3740722830513835   T   T   T
  0.5000849312679039  0.2485255638173980  0.5022274799705538   T   T   T
  0.4990933809862961  0.5018961113299324  0.2507448298127505   T   T   T
  0.5008224100772345  0.4987306231735835  0.4997052035835742   T   T   T
  0.6254202337358131  0.1263123490336958  0.6259814350085113   T   T   T
  0.6267564674508166  0.1270770733025230  0.8710463139047506   T   T   T
  0.6235155691679978  0.3740870025510798  0.6266222071750498   T   T   T
  0.6255180918695940  0.3761869633222341  0.8712592703175148   T   T   T
  0.6230344186088341  0.6259023908477225  0.1246162490835426   T   T   T
  0.6225550267204981  0.6255325376708942  0.3748130804385649   T   T   T
  0.7494266495255442  0.2487290434439943  0.7504427215400696   T   T   T
  0.7485911816987367  0.4987599796371167  0.7508060213983354   T   T   T
  0.7505682965309787  0.7517173312294732  0.5012254049552421   T   T   T
  0.8760108117476715  0.1243402750126314  0.6264667236837800   T   T   T
  0.8735151636294707  0.3731760890956218  0.8734964169092200   T   T   T
  0.8771796336375995  0.6272696037104916  0.1241975876679480   T   T   T
  0.8776356904407917  0.8760013892502087  0.3762469160378142   T   T   T
  0.8778312406603153  0.8760281337668052  0.8746549335736604   T   T   T
  0.9966441658885673  0.5039316310746147  0.9993581453996606   T   T   T
  0.1259833350590398  0.6282370177292852  0.3707816175354139   T   T   T
  0.1222390326443127  0.6277102540798000  0.6225777100025670   T   T   T
  0.1218844125487557  0.6296153603064936  0.8780564304924774   T   T   T
  0.2467049865822527  0.9999663222494101  0.0020737148427299   T   T   T
  0.2454464912687751  0.0003596587453711  0.7478749494463873   T   T   T
  0.2492545302199793  0.2459322274752002  0.7480832379400214   T   T   T
  0.2489999231022979  0.5030444696624977  0.0016418854121236   T   T   T
  0.3781510941997921  0.3724332088011627  0.6231891743390743   T   T   T
  0.3775478064540592  0.3754235848524148  0.8741626847031830   T   T   T
  0.3747252446847100  0.6255356796836106  0.3712673833761421   T   T   T
  0.3771959390820978  0.6247022005638775  0.6216599562759885   T   T   T
  0.3722493656587083  0.8724459621367724  0.1286777278064498   T   T   T
  0.5005874972499655  0.0007408599355393  0.5022029226600132   T   T   T
  0.5019981190502597  0.2495154748151354  0.9978434926802715   T   T   T
  0.4997214560449321  0.7478710756496407  0.0037070387119070   T   T   T
  0.5017541382484046  0.7493176997958160  0.4982141703022396   T   T   T
  0.6229085401807344  0.3779476666358205  0.1248639795120470   T   T   T
  0.6213372211833994  0.3765071633839682  0.3787166252181705   T   T   T
  0.7534879576545942  0.0000744416083500  0.9962425066435979   T   T   T
  0.7519380916288320  0.0018898405039402  0.7478255564310510   T   T   T
  0.7513799658741711  0.2512813901918731  0.9947816613081335   T   T   T
  0.7477257425553380  0.2474845395089484  0.5047984610745542   T   T   T
  0.7504812634766292  0.5009643293138590  0.9989852803279938   T   T   T
  0.7477726846202789  0.5041225363956290  0.2489648158251448   T   T   T
  0.7457683590951657  0.5005277038413224  0.5016432934794445   T   T   T
  0.7519412448617516  0.7476746091044866  0.2494660992074027   T   T   T
  0.8785653567482277  0.1223067484023564  0.1229404756484206   T   T   T
  0.8732473043826603  0.3734633909850852  0.6263165045628553   T   T   T
  0.8764215692619234  0.6256562812687765  0.3741515469545968   T   T   T
  0.8724676304024895  0.6263253850612370  0.6246050230848404   T   T   T
  0.8804135049043085  0.8728992751226716  0.1234058712628329   T   T   T
  0.0028681713112960  0.2458303566380792  0.2499826484615532   T   T   T
  0.9955533554076577  0.5000071098496108  0.7525820802458419   T   T   T
  0.9992156442626912  0.7562342635449287  0.4986787556156383   T   T   T
  0.1242714212146783  0.3772219923823736  0.1260889201433656   T   T   T
  0.1238558761028726  0.3759873933075857  0.3759106177399048   T   T   T
  0.1221575669099998  0.3708956156070215  0.6227909234340530   T   T   T
  0.1221913969855929  0.3726333360943110  0.8748217455751955   T   T   T
  0.2483346305658158  0.2456051414012094  0.0010904168937318   T   T   T
  0.2505629333806718  0.2467810232725809  0.2499241244388015   T   T   T
  0.2521004483112815  0.4993039959703688  0.4989531160288926   T   T   T
  0.2491491408966325  0.5014213266023085  0.7477254612662229   T   T   T
  0.2463845781196773  0.7517649725878891  0.7496674099634585   T   T   T
  0.3737496133557895  0.1226025890247142  0.3774242998390884   T   T   T
  0.3764352417667055  0.1245296364384576  0.8711064427543478   T   T   T
  0.3752904092559758  0.3795593262831146  0.1258569932664576   T   T   T
  0.3765019892517113  0.6245328942709871  0.8771601182802390   T   T   T
  0.3727196760836775  0.8767130735181554  0.6225657745762706   T   T   T
  0.3738757867655434  0.8750701731439197  0.8747914481884936   T   T   T
  0.4994307713277313  0.0019458287508305  0.9999834030872028   T   T   T
  0.4992428843955942  0.2494677473719978  0.2529914955456185   T   T   T
  0.5027425058435715  0.7498478411808470  0.7457762678996125   T   T   T
  0.6255604809662785  0.1225056678705646  0.1259574749225872   T   T   T
  0.6255324353866357  0.6225892796581936  0.8747105401580487   T   T   T
  0.6253107702960854  0.8733023851458822  0.1271770969054258   T   T   T
  0.6258172596740370  0.8732913540268987  0.3759856125469656   T   T   T
  0.6261489022262927  0.8745582164547963  0.8756877159823300   T   T   T
  0.7536585733249717  0.9981476015726919  0.2542712285811735   T   T   T
  0.7479326780324723  0.2479982381769410  0.2525729907074160   T   T   T
  0.7517145681947628  0.7526833512946970  0.7491576051611255   T   T   T
  0.8781131465922647  0.1231318205787613  0.3794016221108307   T   T   T
  0.8779180880513022  0.3757442934154741  0.1250979025225908   T   T   T
  0.8779770534224648  0.3757630957355398  0.3769283963499603   T   T   T
  0.0040531024106545  0.9978728304799857  0.2514160311586089   T   T   T
  0.0012545139124276  0.9988661692689176  0.5018702851163684   T   T   T
  0.0002583654303947  0.2469672593061330  0.9972073328055000   T   T   T
  0.0005368569539226  0.2449000377116195  0.5026566285797173   T   T   T
  0.9972808304096646  0.2463663115681447  0.7509637314942302   T   T   T
  0.0004926625022638  0.5036719962998490  0.2476256996069127   T   T   T
  0.9989314494773465  0.5017217341918128  0.5004137222517809   T   T   T
  0.1241237105777875  0.1206336794456856  0.1257477212463985   T   T   T
  0.1261119318774120  0.1216293886371630  0.3773438190072222   T   T   T
  0.1265529106470337  0.8764605798142978  0.3737035804535706   T   T   T
  0.1232136444286728  0.8780436235301317  0.6234129553711114   T   T   T
  0.1208052387307942  0.8752803500449775  0.8762086506971111   T   T   T
  0.2473527057838474  0.0004451191153729  0.4997342444852048   T   T   T
  0.2501114974269664  0.2468423462190655  0.4992277062066012   T   T   T
  0.2511764262166991  0.5022918699903020  0.2499668815764117   T   T   T
  0.2462111246287801  0.7514861789731172  0.0025605490815958   T   T   T
  0.3748259168198598  0.1220341354980522  0.1280783910703762   T   T   T
  0.3743127720393352  0.3750214342035260  0.3756466512120019   T   T   T
  0.4986054430534662  0.9991962365516452  0.2523414683682316   T   T   T
  0.5028450462097737  0.0027164395674428  0.7477480157583105   T   T   T
  0.5044043466394945  0.2497167302865896  0.7478606740165806   T   T   T
  0.5017312254306106  0.5005691217298965  0.0009182013866370   T   T   T
  0.5032345843579354  0.4972104396012809  0.7484062525327061   T   T   T
  0.4992902923459918  0.7473485079122071  0.2508328914682077   T   T   T
  0.6239075028375818  0.1224719081102834  0.3787362043205598   T   T   T
  0.6258978263083740  0.6226153301457250  0.6248563980159488   T   T   T
  0.6272421304840554  0.8769841040990378  0.6230820671956846   T   T   T
  0.7513307568010346  0.0000788974000220  0.5029699222721391   T   T   T
  0.7536244484923597  0.7479610783652787  0.9991468515971226   T   T   T
  0.8776487995551148  0.1252280050257305  0.8728092080387112   T   T   T
  0.8735537630389260  0.6281005583324634  0.8750229651357077   T   T   T
  0.8767280794810147  0.8777277011557882  0.6249599707324356   T   T   T
 
  0.00000000E+00  0.00000000E+00  0.00000000E+00
  0.00000000E+00  0.00000000E+00  0.00000000E+00
  0.00000000E+00  0.00000000E+00  0.00000000E+00
  0.00000000E+00  0.00000000E+00  0.00000000E+00
  0.00000000E+00  0.00000000E+00  0.00000000E+00
  0.00000000E+00  0.00000000E+00  0.00000000E+00
  0.00000000E+00  0.00000000E+00  0.00000000E+00
  0.00000000E+00  0.00000000E+00  0.00000000E+00
  0.00000000E+00  0.00000000E+00  0.00000000E+00
  0.00000000E+00  0.00000000E+00  0.00000000E+00
  0.00000000E+00  0.00000000E+00  0.00000000E+00
  0.00000000E+00  0.00000000E+00  0.00000000E+00
  0.00000000E+00  0.00000000E+00  0.00000000E+00
  0.00000000E+00  0.00000000E+00  0.00000000E+00
  0.00000000E+00  0.00000000E+00  0.00000000E+00
  0.00000000E+00  0.00000000E+00  0.00000000E+00
  0.00000000E+00  0.00000000E+00  0.00000000E+00
  0.00000000E+00  0.00000000E+00  0.00000000E+00
  0.00000000E+00  0.00000000E+00  0.00000000E+00
  0.00000000E+00  0.00000000E+00  0.00000000E+00
  0.00000000E+00  0.00000000E+00  0.00000000E+00
  0.00000000E+00  0.00000000E+00  0.00000000E+00
  0.00000000E+00  0.00000000E+00  0.00000000E+00
  0.00000000E+00  0.00000000E+00  0.00000000E+00
  0.00000000E+00  0.00000000E+00  0.00000000E+00
  0.00000000E+00  0.00000000E+00  0.00000000E+00
  0.00000000E+00  0.00000000E+00  0.00000000E+00
  0.00000000E+00  0.00000000E+00  0.00000000E+00
  0.00000000E+00  0.00000000E+00  0.00000000E+00
  0.00000000E+00  0.00000000E+00  0.00000000E+00
  0.00000000E+00  0.00000000E+00  0.00000000E+00
  0.00000000E+00  0.00000000E+00  0.00000000E+00
  0.00000000E+00  0.00000000E+00  0.00000000E+00
  0.00000000E+00  0.00000000E+00  0.00000000E+00
  0.00000000E+00  0.00000000E+00  0.00000000E+00
  0.00000000E+00  0.00000000E+00  0.00000000E+00
  0.00000000E+00  0.00000000E+00  0.00000000E+00
  0.00000000E+00  0.00000000E+00  0.00000000E+00
  0.00000000E+00  0.00000000E+00  0.00000000E+00
  0.00000000E+00  0.00000000E+00  0.00000000E+00
  0.00000000E+00  0.00000000E+00  0.00000000E+00
  0.00000000E+00  0.00000000E+00  0.00000000E+00
  0.00000000E+00  0.00000000E+00  0.00000000E+00
  0.00000000E+00  0.00000000E+00  0.00000000E+00
  0.00000000E+00  0.00000000E+00  0.00000000E+00
  0.00000000E+00  0.00000000E+00  0.00000000E+00
  0.00000000E+00  0.00000000E+00  0.00000000E+00
  0.00000000E+00  0.00000000E+00  0.00000000E+00
  0.00000000E+00  0.00000000E+00  0.00000000E+00
  0.00000000E+00  0.00000000E+00  0.00000000E+00
  0.00000000E+00  0.00000000E+00  0.00000000E+00
  0.00000000E+00  0.00000000E+00  0.00000000E+00
  0.00000000E+00  0.00000000E+00  0.00000000E+00
  0.00000000E+00  0.00000000E+00  0.00000000E+00
  0.00000000E+00  0.00000000E+00  0.00000000E+00
  0.00000000E+00  0.00000000E+00  0.00000000E+00
  0.00000000E+00  0.00000000E+00  0.00000000E+00
  0.00000000E+00  0.00000000E+00  0.00000000E+00
  0.00000000E+00  0.00000000E+00  0.00000000E+00
  0.00000000E+00  0.00000000E+00  0.00000000E+00
  0.00000000E+00  0.00000000E+00  0.00000000E+00
  0.00000000E+00  0.00000000E+00  0.00000000E+00
  0.00000000E+00  0.00000000E+00  0.00000000E+00
  0.00000000E+00  0.00000000E+00  0.00000000E+00
  0.00000000E+00  0.00000000E+00  0.00000000E+00
  0.00000000E+00  0.00000000E+00  0.00000000E+00
  0.00000000E+00  0.00000000E+00  0.00000000E+00
  0.00000000E+00  0.00000000E+00  0.00000000E+00
  0.00000000E+00  0.00000000E+00  0.00000000E+00
  0.00000000E+00  0.00000000E+00  0.00000000E+00
  0.00000000E+00  0.00000000E+00  0.00000000E+00
  0.00000000E+00  0.00000000E+00  0.00000000E+00
  0.00000000E+00  0.00000000E+00  0.00000000E+00
  0.00000000E+00  0.00000000E+00  0.00000000E+00
  0.00000000E+00  0.00000000E+00  0.00000000E+00
  0.00000000E+00  0.00000000E+00  0.00000000E+00
  0.00000000E+00  0.00000000E+00  0.00000000E+00
  0.00000000E+00  0.00000000E+00  0.00000000E+00
  0.00000000E+00  0.00000000E+00  0.00000000E+00
  0.00000000E+00  0.00000000E+00  0.00000000E+00
  0.00000000E+00  0.00000000E+00  0.00000000E+00
  0.00000000E+00  0.00000000E+00  0.00000000E+00
  0.00000000E+00  0.00000000E+00  0.00000000E+00
  0.00000000E+00  0.00000000E+00  0.00000000E+00
  0.00000000E+00  0.00000000E+00  0.00000000E+00
  0.00000000E+00  0.00000000E+00  0.00000000E+00
  0.00000000E+00  0.00000000E+00  0.00000000E+00
  0.00000000E+00  0.00000000E+00  0.00000000E+00
  0.00000000E+00  0.00000000E+00  0.00000000E+00
  0.00000000E+00  0.00000000E+00  0.00000000E+00
  0.00000000E+00  0.00000000E+00  0.00000000E+00
  0.00000000E+00  0.00000000E+00  0.00000000E+00
  0.00000000E+00  0.00000000E+00  0.00000000E+00
  0.00000000E+00  0.00000000E+00  0.00000000E+00
  0.00000000E+00  0.00000000E+00  0.00000000E+00
  0.00000000E+00  0.00000000E+00  0.00000000E+00
  0.00000000E+00  0.00000000E+00  0.00000000E+00
  0.00000000E+00  0.00000000E+00  0.00000000E+00
  0.00000000E+00  0.00000000E+00  0.00000000E+00
  0.00000000E+00  0.00000000E+00  0.00000000E+00
  0.00000000E+00  0.00000000E+00  0.00000000E+00
  0.00000000E+00  0.00000000E+00  0.00000000E+00
  0.00000000E+00  0.00000000E+00  0.00000000E+00
  0.00000000E+00  0.00000000E+00  0.00000000E+00
  0.00000000E+00  0.00000000E+00  0.00000000E+00
  0.00000000E+00  0.00000000E+00  0.00000000E+00
  0.00000000E+00  0.00000000E+00  0.00000000E+00
  0.00000000E+00  0.00000000E+00  0.00000000E+00
  0.00000000E+00  0.00000000E+00  0.00000000E+00
  0.00000000E+00  0.00000000E+00  0.00000000E+00
  0.00000000E+00  0.00000000E+00  0.00000000E+00
  0.00000000E+00  0.00000000E+00  0.00000000E+00
  0.00000000E+00  0.00000000E+00  0.00000000E+00
  0.00000000E+00  0.00000000E+00  0.00000000E+00
  0.00000000E+00  0.00000000E+00  0.00000000E+00
  0.00000000E+00  0.00000000E+00  0.00000000E+00
  0.00000000E+00  0.00000000E+00  0.00000000E+00
  0.00000000E+00  0.00000000E+00  0.00000000E+00
  0.00000000E+00  0.00000000E+00  0.00000000E+00
  0.00000000E+00  0.00000000E+00  0.00000000E+00
  0.00000000E+00  0.00000000E+00  0.00000000E+00
  0.00000000E+00  0.00000000E+00  0.00000000E+00
  0.00000000E+00  0.00000000E+00  0.00000000E+00
  0.00000000E+00  0.00000000E+00  0.00000000E+00
  0.00000000E+00  0.00000000E+00  0.00000000E+00
  0.00000000E+00  0.00000000E+00  0.00000000E+00
  0.00000000E+00  0.00000000E+00  0.00000000E+00
  0.00000000E+00  0.00000000E+00  0.00000000E+00
