0.0                                     
   3.00000000000000     
     4.5717799999999995    0.0000000000000000    0.0000000000000000
     0.0000000000000000    4.2443843602142790    0.0000000000000000
     0.0000000000000000    0.0000000000000000    4.2429570359304671
   Mo   Nb   Ta   W 
    32    32    32    32
Selective dynamics
Direct
  0.0028306670819351  0.9990932791347076  0.9980857291275348   T   T   T
  0.9984588514788600  0.0014529072590218  0.7492905891028894   T   T   T
  0.0000453264871870  0.7519099385116097  0.0000840677411238   T   T   T
  0.0038478223206302  0.7519428896176007  0.2484892378312379   T   T   T
  0.9968001240026759  0.7536090386135346  0.7507082347245601   T   T   T
  0.1217487686057516  0.1240823753542295  0.6239300658674160   T   T   T
  0.1190657120998569  0.1234137583862885  0.8741142969077667   T   T   T
  0.1257045690609448  0.6279920225128338  0.1263491908323353   T   T   T
  0.1248732147179099  0.8739716094395482  0.1266029794401815   T   T   T
  0.2476330938721926  0.9985688026036283  0.2516232775702912   T   T   T
  0.2491208132705491  0.7514896001255454  0.2483047635798276   T   T   T
  0.2480437725931456  0.7530145168841652  0.4983545002996238   T   T   T
  0.3757095028791737  0.1245855410172232  0.6238065589625957   T   T   T
  0.3735091515032100  0.6254944580471521  0.1262431518035273   T   T   T
  0.3717966616512987  0.8751740396732596  0.3744644948865918   T   T   T
  0.5004807959361527  0.2482280933447638  0.5020386245601224   T   T   T
  0.4987175873304841  0.5017798520862640  0.2503844844099157   T   T   T
  0.5015961904076811  0.4989915005124310  0.4997807685757490   T   T   T
  0.6256327622614608  0.1255699814883922  0.6255747768779851   T   T   T
  0.6268246214192583  0.1264288090973950  0.8717821843797686   T   T   T
  0.6229989181341806  0.3740668334846124  0.6266991761147155   T   T   T
  0.6257304222588917  0.3762341646377456  0.8717491816658089   T   T   T
  0.6224660167738235  0.6260848678124149  0.1245482076122756   T   T   T
  0.6209202811149882  0.6257933080717356  0.3746307677693888   T   T   T
  0.7489211313191012  0.2489108360951070  0.7504594236922959   T   T   T
  0.7480960108918532  0.4992941182022061  0.7507811043198562   T   T   T
  0.7505696641808354  0.7518918733092197  0.5006943701150505   T   T   T
  0.8766976066021396  0.1241923673722508  0.6261318027616626   T   T   T
  0.8727940038566279  0.3733834697347147  0.8739546229320244   T   T   T
  0.8781153035710877  0.6270031486519895  0.1241889215725516   T   T   T
  0.8787342108533890  0.8761228136425400  0.3761854953389300   T   T   T
  0.8791262536846587  0.8759333839053578  0.8746467426800214   T   T   T
  0.9958098893245437  0.5036402356156845  0.9995265865924985   T   T   T
  0.1265397104635707  0.6276301224927461  0.3715391075656040   T   T   T
  0.1215249540553679  0.6263255964342870  0.6226266359924073   T   T   T
  0.1202653667399660  0.6284287716187881  0.8772166732471119   T   T   T
  0.2445360719554694  0.0004287576398179  0.0015539450651458   T   T   T
  0.2426841053892794  0.0003050177567044  0.7482191166964444   T   T   T
  0.2489800528289983  0.2465005503902858  0.7483965904159385   T   T   T
  0.2494288321836033  0.5026565591087480  0.0010893627310326   T   T   T
  0.3806959605715127  0.3726187615154267  0.6236694720746787   T   T   T
  0.3798390087491594  0.3751043097442278  0.8740348499675086   T   T   T
  0.3748621577536150  0.6255208619539180  0.3719666689174952   T   T   T
  0.3782025113805575  0.6250805610435073  0.6231627849386545   T   T   T
  0.3703064548927431  0.8728529161529194  0.1278989280919994   T   T   T
  0.5003707599085337  0.0003405928853223  0.5020776782649446   T   T   T
  0.5022327477720896  0.2490754853771222  0.9983769877294844   T   T   T
  0.4997551177429257  0.7485221799504562  0.0033863910687732   T   T   T
  0.5026384372069712  0.7498812777983769  0.4985615860986684   T   T   T
  0.6216900130115490  0.3771991328599147  0.1249401923585634   T   T   T
  0.6190839266330723  0.3759173843436410  0.3777927293681138   T   T   T
  0.7553388166227433 -0.0000768140977642  0.9974369249493492   T   T   T
  0.7535694813191538  0.0016765265132149  0.7478155677654076   T   T   T
  0.7517116572974434  0.2508673954176671  0.9959714396506880   T   T   T
  0.7465607389217261  0.2475621379313516  0.5034197491028504   T   T   T
  0.7507676997651312  0.5011765861213976  0.9992986067372148   T   T   T
  0.7467460537016727  0.5034100512992107  0.2493870449390751   T   T   T
  0.7438070439694840  0.5007032750856534  0.5005288307129471   T   T   T
  0.7525721508253296  0.7481497256001145  0.2493344930036351   T   T   T
  0.8804727897211951  0.1232145397844759  0.1235972269804714   T   T   T
  0.8722839241327796  0.3733926559937090  0.6254135416362211   T   T   T
  0.8767268532414819  0.6254842539236896  0.3742624650677996   T   T   T
  0.8718331156034406  0.6261584174436908  0.6243400839579982   T   T   T
  0.8833024006417455  0.8731803240263657  0.1239500214947436   T   T   T
  0.0044894891852687  0.2467133096579633  0.2501816991371040   T   T   T
  0.9932172113504599  0.4992521930988739  0.7520093898928643   T   T   T
  0.9991447524151951  0.7554275722620208  0.4985693296790863   T   T   T
  0.1245732761307177  0.3774980280398495  0.1259388276010635   T   T   T
  0.1241691657365119  0.3759828417947457  0.3763951314315068   T   T   T
  0.1213170684389702  0.3713462030336711  0.6230449122219536   T   T   T
  0.1205004682255733  0.3730016226666262  0.8742967559159004   T   T   T
  0.2476143641988592  0.2463250698023922  0.0006154545654898   T   T   T
  0.2503221816605457  0.2475269366532647  0.2497517023756444   T   T   T
  0.2532302108827875  0.4985760722549166  0.4997370565586057   T   T   T
  0.2496792823665129  0.5011380793669197  0.7478151008984653   T   T   T
  0.2448607436972529  0.7512266396196455  0.7502389441460005   T   T   T
  0.3723409837512479  0.1225854982446898  0.3775010853028648   T   T   T
  0.3767270998677327  0.1239863764881239  0.8714325395054473   T   T   T
  0.3755243643814395  0.3788949547154494  0.1257451375838175   T   T   T
  0.3772746226860408  0.6253496831023627  0.8765746635251888   T   T   T
  0.3719351342756660  0.8766857467193822  0.6234815664005171   T   T   T
  0.3732985329065134  0.8757578183233771  0.8742529906074891   T   T   T
  0.4991648381787587  0.0011367143308260  0.0000931762241052   T   T   T
  0.4974973641906685  0.2483920704059066  0.2525668625813454   T   T   T
  0.5045745068306138  0.7507786971696392  0.7462121648091163   T   T   T
  0.6247829691663231  0.1215614411308724  0.1261870855916419   T   T   T
  0.6268351109844412  0.6236020179653913  0.8748970947065842   T   T   T
  0.6252902463943389  0.8735021178355777  0.1272357942741686   T   T   T
  0.6260075449142416  0.8736030958829362  0.3756419798129300   T   T   T
  0.6279226977160633  0.8750111399039356  0.8759082724864891   T   T   T
  0.7545017116903614  0.9982546934823228  0.2538552395284780   T   T   T
  0.7474839808404476  0.2477684553103075  0.2520700311253516   T   T   T
  0.7524872737160063  0.7527034640384327  0.7491261357769328   T   T   T
  0.8795662244494002  0.1237485054958065  0.3789644776311994   T   T   T
  0.8783290668693502  0.3759323149377498  0.1260971568945992   T   T   T
  0.8785860325782020  0.3752769089022349  0.3765311535252890   T   T   T
  0.0058828029714797  0.9984495518168601  0.2516473309565810   T   T   T
  0.0022629449611682  0.9990132194266437  0.5015698744844207   T   T   T
  0.0001810935716360  0.2475835314146022  0.9975566752342702   T   T   T
  0.0009770629488871  0.2452903710293224  0.5024208125125191   T   T   T
  0.9962775210517545  0.2470068290403141  0.7505739151777783   T   T   T
  0.0009334878945615  0.5033169922599393  0.2481133835955715   T   T   T
  0.9985237862449532  0.5015748933991252  0.5004038422759578   T   T   T
  0.1234620919746350  0.1221317745768570  0.1256817939580404   T   T   T
  0.1264670980605421  0.1223515585451400  0.3772673764437278   T   T   T
  0.1272078917428654  0.8762576385177141  0.3742314899759537   T   T   T
  0.1224373400233857  0.8774593769711461  0.6232644356347709   T   T   T
  0.1190678776943253  0.8752258003833842  0.8756884338784420   T   T   T
  0.2463899349155722  0.0007464133963551  0.5001169863648611   T   T   T
  0.2501792260126620  0.2474967364767678  0.4995451403475991   T   T   T
  0.2519753956117147  0.5017627921415987  0.2502014935805121   T   T   T
  0.2450359399119074  0.7515827149504738  0.0014278544690397   T   T   T
  0.3739081494141994  0.1225198839890485  0.1274592604870256   T   T   T
  0.3745461603889783  0.3746570605272431  0.3756734435464715   T   T   T
  0.4972444383495681  0.9988429742207581  0.2519059173312984   T   T   T
  0.5044235459263843  0.0022602940287290  0.7480744169499079   T   T   T
  0.5062403942648904  0.2492216607570678  0.7480739417215809   T   T   T
  0.5023725361051730  0.5009829599946897  0.0006719717573007   T   T   T
  0.5056528935674641  0.4982271069119613  0.7489882235647700   T   T   T
  0.4983857398161159  0.7481819887858305  0.2509767837247589   T   T   T
  0.6226652655053483  0.1214951302372703  0.3777908718062145   T   T   T
  0.6261294193436363  0.6231722008955640  0.6252735797015110   T   T   T
  0.6285210507329438  0.8769544200088859  0.6231069536431105   T   T   T
  0.7514169075801550  0.0001004138968671  0.5020496082488725   T   T   T
  0.7551545023289973  0.7485600285832176  0.9992732788252860   T   T   T
  0.8793746703240510  0.1253352334514375  0.8730136016071323   T   T   T
  0.8733295096720753  0.6277280108461446  0.8750474654340809   T   T   T
  0.8773761638626956  0.8773318075286836  0.6244668532042930   T   T   T
 
  0.00000000E+00  0.00000000E+00  0.00000000E+00
  0.00000000E+00  0.00000000E+00  0.00000000E+00
  0.00000000E+00  0.00000000E+00  0.00000000E+00
  0.00000000E+00  0.00000000E+00  0.00000000E+00
  0.00000000E+00  0.00000000E+00  0.00000000E+00
  0.00000000E+00  0.00000000E+00  0.00000000E+00
  0.00000000E+00  0.00000000E+00  0.00000000E+00
  0.00000000E+00  0.00000000E+00  0.00000000E+00
  0.00000000E+00  0.00000000E+00  0.00000000E+00
  0.00000000E+00  0.00000000E+00  0.00000000E+00
  0.00000000E+00  0.00000000E+00  0.00000000E+00
  0.00000000E+00  0.00000000E+00  0.00000000E+00
  0.00000000E+00  0.00000000E+00  0.00000000E+00
  0.00000000E+00  0.00000000E+00  0.00000000E+00
  0.00000000E+00  0.00000000E+00  0.00000000E+00
  0.00000000E+00  0.00000000E+00  0.00000000E+00
  0.00000000E+00  0.00000000E+00  0.00000000E+00
  0.00000000E+00  0.00000000E+00  0.00000000E+00
  0.00000000E+00  0.00000000E+00  0.00000000E+00
  0.00000000E+00  0.00000000E+00  0.00000000E+00
  0.00000000E+00  0.00000000E+00  0.00000000E+00
  0.00000000E+00  0.00000000E+00  0.00000000E+00
  0.00000000E+00  0.00000000E+00  0.00000000E+00
  0.00000000E+00  0.00000000E+00  0.00000000E+00
  0.00000000E+00  0.00000000E+00  0.00000000E+00
  0.00000000E+00  0.00000000E+00  0.00000000E+00
  0.00000000E+00  0.00000000E+00  0.00000000E+00
  0.00000000E+00  0.00000000E+00  0.00000000E+00
  0.00000000E+00  0.00000000E+00  0.00000000E+00
  0.00000000E+00  0.00000000E+00  0.00000000E+00
  0.00000000E+00  0.00000000E+00  0.00000000E+00
  0.00000000E+00  0.00000000E+00  0.00000000E+00
  0.00000000E+00  0.00000000E+00  0.00000000E+00
  0.00000000E+00  0.00000000E+00  0.00000000E+00
  0.00000000E+00  0.00000000E+00  0.00000000E+00
  0.00000000E+00  0.00000000E+00  0.00000000E+00
  0.00000000E+00  0.00000000E+00  0.00000000E+00
  0.00000000E+00  0.00000000E+00  0.00000000E+00
  0.00000000E+00  0.00000000E+00  0.00000000E+00
  0.00000000E+00  0.00000000E+00  0.00000000E+00
  0.00000000E+00  0.00000000E+00  0.00000000E+00
  0.00000000E+00  0.00000000E+00  0.00000000E+00
  0.00000000E+00  0.00000000E+00  0.00000000E+00
  0.00000000E+00  0.00000000E+00  0.00000000E+00
  0.00000000E+00  0.00000000E+00  0.00000000E+00
  0.00000000E+00  0.00000000E+00  0.00000000E+00
  0.00000000E+00  0.00000000E+00  0.00000000E+00
  0.00000000E+00  0.00000000E+00  0.00000000E+00
  0.00000000E+00  0.00000000E+00  0.00000000E+00
  0.00000000E+00  0.00000000E+00  0.00000000E+00
  0.00000000E+00  0.00000000E+00  0.00000000E+00
  0.00000000E+00  0.00000000E+00  0.00000000E+00
  0.00000000E+00  0.00000000E+00  0.00000000E+00
  0.00000000E+00  0.00000000E+00  0.00000000E+00
  0.00000000E+00  0.00000000E+00  0.00000000E+00
  0.00000000E+00  0.00000000E+00  0.00000000E+00
  0.00000000E+00  0.00000000E+00  0.00000000E+00
  0.00000000E+00  0.00000000E+00  0.00000000E+00
  0.00000000E+00  0.00000000E+00  0.00000000E+00
  0.00000000E+00  0.00000000E+00  0.00000000E+00
  0.00000000E+00  0.00000000E+00  0.00000000E+00
  0.00000000E+00  0.00000000E+00  0.00000000E+00
  0.00000000E+00  0.00000000E+00  0.00000000E+00
  0.00000000E+00  0.00000000E+00  0.00000000E+00
  0.00000000E+00  0.00000000E+00  0.00000000E+00
  0.00000000E+00  0.00000000E+00  0.00000000E+00
  0.00000000E+00  0.00000000E+00  0.00000000E+00
  0.00000000E+00  0.00000000E+00  0.00000000E+00
  0.00000000E+00  0.00000000E+00  0.00000000E+00
  0.00000000E+00  0.00000000E+00  0.00000000E+00
  0.00000000E+00  0.00000000E+00  0.00000000E+00
  0.00000000E+00  0.00000000E+00  0.00000000E+00
  0.00000000E+00  0.00000000E+00  0.00000000E+00
  0.00000000E+00  0.00000000E+00  0.00000000E+00
  0.00000000E+00  0.00000000E+00  0.00000000E+00
  0.00000000E+00  0.00000000E+00  0.00000000E+00
  0.00000000E+00  0.00000000E+00  0.00000000E+00
  0.00000000E+00  0.00000000E+00  0.00000000E+00
  0.00000000E+00  0.00000000E+00  0.00000000E+00
  0.00000000E+00  0.00000000E+00  0.00000000E+00
  0.00000000E+00  0.00000000E+00  0.00000000E+00
  0.00000000E+00  0.00000000E+00  0.00000000E+00
  0.00000000E+00  0.00000000E+00  0.00000000E+00
  0.00000000E+00  0.00000000E+00  0.00000000E+00
  0.00000000E+00  0.00000000E+00  0.00000000E+00
  0.00000000E+00  0.00000000E+00  0.00000000E+00
  0.00000000E+00  0.00000000E+00  0.00000000E+00
  0.00000000E+00  0.00000000E+00  0.00000000E+00
  0.00000000E+00  0.00000000E+00  0.00000000E+00
  0.00000000E+00  0.00000000E+00  0.00000000E+00
  0.00000000E+00  0.00000000E+00  0.00000000E+00
  0.00000000E+00  0.00000000E+00  0.00000000E+00
  0.00000000E+00  0.00000000E+00  0.00000000E+00
  0.00000000E+00  0.00000000E+00  0.00000000E+00
  0.00000000E+00  0.00000000E+00  0.00000000E+00
  0.00000000E+00  0.00000000E+00  0.00000000E+00
  0.00000000E+00  0.00000000E+00  0.00000000E+00
  0.00000000E+00  0.00000000E+00  0.00000000E+00
  0.00000000E+00  0.00000000E+00  0.00000000E+00
  0.00000000E+00  0.00000000E+00  0.00000000E+00
  0.00000000E+00  0.00000000E+00  0.00000000E+00
  0.00000000E+00  0.00000000E+00  0.00000000E+00
  0.00000000E+00  0.00000000E+00  0.00000000E+00
  0.00000000E+00  0.00000000E+00  0.00000000E+00
  0.00000000E+00  0.00000000E+00  0.00000000E+00
  0.00000000E+00  0.00000000E+00  0.00000000E+00
  0.00000000E+00  0.00000000E+00  0.00000000E+00
  0.00000000E+00  0.00000000E+00  0.00000000E+00
  0.00000000E+00  0.00000000E+00  0.00000000E+00
  0.00000000E+00  0.00000000E+00  0.00000000E+00
  0.00000000E+00  0.00000000E+00  0.00000000E+00
  0.00000000E+00  0.00000000E+00  0.00000000E+00
  0.00000000E+00  0.00000000E+00  0.00000000E+00
  0.00000000E+00  0.00000000E+00  0.00000000E+00
  0.00000000E+00  0.00000000E+00  0.00000000E+00
  0.00000000E+00  0.00000000E+00  0.00000000E+00
  0.00000000E+00  0.00000000E+00  0.00000000E+00
  0.00000000E+00  0.00000000E+00  0.00000000E+00
  0.00000000E+00  0.00000000E+00  0.00000000E+00
  0.00000000E+00  0.00000000E+00  0.00000000E+00
  0.00000000E+00  0.00000000E+00  0.00000000E+00
  0.00000000E+00  0.00000000E+00  0.00000000E+00
  0.00000000E+00  0.00000000E+00  0.00000000E+00
  0.00000000E+00  0.00000000E+00  0.00000000E+00
  0.00000000E+00  0.00000000E+00  0.00000000E+00
  0.00000000E+00  0.00000000E+00  0.00000000E+00
  0.00000000E+00  0.00000000E+00  0.00000000E+00
  0.00000000E+00  0.00000000E+00  0.00000000E+00
