0.0                                     
   3.00000000000000     
     4.9168199999999995    0.0000000000000000    0.0000000000000000
     0.0000000000000000    4.0737525548486095    0.0000000000000000
     0.0000000000000000    0.0000000000000000    4.1663016017562171
   Mo   Nb   Ta   W 
    32    32    32    32
Selective dynamics
Direct
 -0.0061341344764519  0.0042483196082585  0.0036691544701423   T   T   T
  0.9887101497685853  0.0052624605490646  0.7538465217338108   T   T   T
  0.0090256356673391  0.7465357107137429 -0.0021389022914923   T   T   T
  0.0144468711196441  0.7480180306087141  0.2482940777142033   T   T   T
  0.0049835449686143  0.7472283523431111  0.7492886979190567   T   T   T
  0.0929258578804520  0.1416801849327274  0.6364903761716214   T   T   T
  0.0920035350918370  0.1435661999267552  0.8884568139492883   T   T   T
  0.1337115960470202  0.6241335761560243  0.1239607331770576   T   T   T
  0.1154254401615332  0.8816016396249703  0.1331455320015907   T   T   T
  0.2190725106884281  0.0177970434336779  0.2686313413496460   T   T   T
  0.2393076102627947  0.7585013420303235  0.2558858693367363   T   T   T
  0.2385263766352988  0.7594696464874207  0.5082752038066889   T   T   T
  0.4053812955777457  0.1065187926968503  0.6028893684763533   T   T   T
  0.3611025381789610  0.6332789288219030  0.1316521533515350   T   T   T
  0.3445306769363959  0.8928226332132851  0.3949254426537561   T   T   T
  0.5099899367230992  0.2420913747038896  0.4921464366336720   T   T   T
  0.4869160393643102  0.5092328386432998  0.2539986791042224   T   T   T
  0.4922127364776664  0.5060735932473771  0.5039957482166774   T   T   T
  0.6360857460282076  0.1200151274319494  0.6181772307495138   T   T   T
  0.6383308754738370  0.1187800842617004  0.8667511645462902   T   T   T
  0.6155760532782537  0.3811425724166237  0.6280843822304476   T   T   T
  0.6182163943260195  0.3801265933673338  0.8757491851195699   T   T   T
  0.5928510618738427  0.6447901350963929  0.1431404520807363   T   T   T
  0.5930670471653924  0.6454391337625105  0.3924836241445582   T   T   T
  0.7407474258518300  0.2510445719862602  0.7521235129748886   T   T   T
  0.7241584850351691  0.5109723301688835  0.7629676220233719   T   T   T
  0.7762459688336686  0.7350120267911996  0.4891681032757335   T   T   T
  0.8655841035730213  0.1283770262615877  0.6278712345940484   T   T   T
  0.8496839828154722  0.3880786398573821  0.8814689831091037   T   T   T
  0.9072934299842513  0.6114109787407789  0.1159311405201266   T   T   T
  0.8871783831213407  0.8710191574728580  0.3744344753029221   T   T   T
  0.8871939128064340  0.8675132789798310  0.8714353824025985   T   T   T
  0.0150228075502269  0.4854675032828766  0.9896616959741076   T   T   T
  0.1367568264974410  0.6232060744748419  0.3713791297082588   T   T   T
  0.1315849655884116  0.6199609615460294  0.6223522655500314   T   T   T
  0.1265906964750788  0.6225552748723868  0.8745625561663549   T   T   T
  0.2197039987250653  0.0220029874666162  0.0191578905848679   T   T   T
  0.2163252441906564  0.0223454238167599  0.7666245263210940   T   T   T
  0.2765831919721758  0.2256037404930048  0.7256094474133079   T   T   T
  0.2550424398200496  0.4977983093517101 -0.0040161725782762   T   T   T
  0.3910644662738622  0.3654302974059608  0.6172317946321484   T   T   T
  0.3890254932366587  0.3686577201476810  0.8677975149192921   T   T   T
  0.3653964725297016  0.6322125091599636  0.3788407773523421   T   T   T
  0.3705501710954987  0.6313000977293297  0.6306447643870624   T   T   T
  0.3459731768739936  0.8978201632884654  0.1477931910861132   T   T   T
  0.5247687426321003 -0.0184309786126108  0.4859648400392357   T   T   T
  0.5124460710979497  0.2432948681901273 -0.0095735417660927   T   T   T
  0.4743154016801137  0.7667771468200077  0.0216541591513481   T   T   T
  0.4800820596876230  0.7698591458934965  0.5159166735522739   T   T   T
  0.6124674248321700  0.3840732859455415  0.1262415824284809   T   T   T
  0.6098690759011764  0.3837156959657007  0.3792209843812173   T   T   T
  0.7643089024545091 -0.0083995616495661 -0.0048615040097283   T   T   T
  0.7628409571464474 -0.0064642580931338  0.7437319500869926   T   T   T
  0.7440760520896231  0.2552538329112169 -0.0002984059927150   T   T   T
  0.7381159970051825  0.2556456864204341  0.5031977937080234   T   T   T
  0.7332314516078887  0.5200455460113391  0.0154282459486023   T   T   T
  0.7187087713786678  0.5251100003244966  0.2660175837816490   T   T   T
  0.7202728774310516  0.5282407054366077  0.5146300596158411   T   T   T
  0.7791284524614310  0.7278558417409043  0.2356883000041599   T   T   T
  0.8721001867235375  0.1295479873100135  0.1272273247568861   T   T   T
  0.8473145265294151  0.3912217181883105  0.6351295226277154   T   T   T
  0.9017131218140569  0.6081763290616239  0.3629787452675134   T   T   T
  0.8979810607415452  0.6055638745380209  0.6111753535549437   T   T   T
  0.8928260056752004  0.8673090043303426  0.1224153127895674   T   T   T
 -0.0167003596520515  0.2708698921479786  0.2598760924471889   T   T   T
  0.0158786806353977  0.4780700754574285  0.7374910326338521   T   T   T
  0.0082853689827308  0.7495217743920742  0.4988533227469432   T   T   T
  0.1433885091613232  0.3595650399631684  0.1111545604146900   T   T   T
  0.1493148680714589  0.3566287067580987  0.3623687388263435   T   T   T
  0.1468047316657560  0.3482756681575201  0.6073423150828614   T   T   T
  0.1411528993817832  0.3517056943735202  0.8579566543302803   T   T   T
  0.2724952092875559  0.2298423466477666 -0.0199355243107842   T   T   T
  0.2719093983413151  0.2245065761296287  0.2292024742104361   T   T   T
  0.2614955401948583  0.4918320172078156  0.4963492356250577   T   T   T
  0.2588253602560113  0.4924946318768867  0.7445430339159888   T   T   T
  0.2366102415674605  0.7586026324232229  0.7575289147276176   T   T   T
  0.3953750074791798  0.0984281173369911  0.3562536108836891   T   T   T
  0.4028896469308836  0.1043292963230349  0.8493282414010622   T   T   T
  0.3824742673929206  0.3741098078410690  0.1186888485829299   T   T   T
  0.3674413619757394  0.6309065084053339  0.8816320850879523   T   T   T
  0.3508789979489606  0.9015074261367872  0.6424961537817558   T   T   T
  0.3477096176360805  0.8946482704602909  0.8938563874488573   T   T   T
  0.5235261580851862 -0.0199027150145479 -0.0164090973065957   T   T   T
  0.5061889982022683  0.2431193269450779  0.2442760005952902   T   T   T
  0.4829230732809587  0.7718340437636475  0.7667030920426204   T   T   T
  0.6350996244607766  0.1163569847588580  0.1195561830679798   T   T   T
  0.6081347452248392  0.6385726728071438  0.8924092791141465   T   T   T
  0.6507226863802062  0.8484198193075743  0.1128111160739763   T   T   T
  0.6493763106871685  0.8519008847223792  0.3639212889990092   T   T   T
  0.6530558833160975  0.8546444624383962  0.8636662547230769   T   T   T
  0.7632525218255166  0.9922625667449294  0.2489313082606601   T   T   T
  0.7398547462681699  0.2564871373840180  0.2526347057486007   T   T   T
  0.7749309207356246  0.7268362954141424  0.7391435895011451   T   T   T
  0.8702037901664689  0.1309210979310231  0.3798189948979239   T   T   T
  0.8585650763708282  0.3993485358010640  0.1375989861161266   T   T   T
  0.8523201344948245  0.3956081083312344  0.3875769264681613   T   T   T
 -0.0040602399837983  0.0056535207414973  0.2569563779557751   T   T   T
 -0.0083018380872042  0.0042435020967912  0.5055708067976076   T   T   T
 -0.0248509668177641  0.2639712347037876  0.0047496324768947   T   T   T
 -0.0237796514770050  0.2661224255148010  0.5119862237339239   T   T   T
  0.9700795052198085  0.2632598782684092  0.7592139183888332   T   T   T
  0.0271703508556161  0.4886807299168673  0.2403172103057146   T   T   T
  0.0234649381256249  0.4787566671793747  0.4871080089132658   T   T   T
  0.0975380418039622  0.1423787942193274  0.1376469446844883   T   T   T
  0.1008466930750967  0.1412494380767302  0.3902607717828768   T   T   T
  0.1172856941300596  0.8832632570819177  0.3821216294199637   T   T   T
  0.1129833132177092  0.8826201328114894  0.6307258199991269   T   T   T
  0.1103141627311100  0.8821493885220996  0.8819205038073276   T   T   T
  0.2214536189375403  0.0226225421938050  0.5161605194764529   T   T   T
  0.2761913209682876  0.2267067572846297  0.4791891183551684   T   T   T
  0.2593372039817106  0.4971786088875419  0.2450914365094731   T   T   T
  0.2346601085031514  0.7595599618875889  0.0081716021487609   T   T   T
  0.4012461376705831  0.1051263596909757  0.1055965806121509   T   T   T
  0.3823969837511544  0.3687918820972690  0.3673392634333238   T   T   T
  0.5248147095022584  0.9781179336868269  0.2347155326243492   T   T   T
  0.5322962889457036 -0.0164463010166809  0.7308727807311893   T   T   T
  0.5182368692877332  0.2428425798380968  0.7408514286793291   T   T   T
  0.4920104413262549  0.5066671988862566  0.0030950637545312   T   T   T
  0.4976536848610635  0.5028812333968226  0.7538152221519654   T   T   T
  0.4723822239372431  0.7729526982278352  0.2689974895095250   T   T   T
  0.6330567745591273  0.1174646117600835  0.3701711814935428   T   T   T
  0.6020865828269559  0.6441774664279679  0.6435816162028760   T   T   T
  0.6532775228246472  0.8560855489325856  0.6127296163827932   T   T   T
  0.7597868333042925 -0.0047645270479126  0.4965747983252091   T   T   T
  0.7841156071639707  0.7284030367074151 -0.0127334270431623   T   T   T
  0.8702374220238915  0.1278134613314026  0.8761331891925864   T   T   T
  0.8959597480149480  0.6042918204806085  0.8641658613068045   T   T   T
  0.8851877211014771  0.8703851957350635  0.6225543694573856   T   T   T
 
  0.00000000E+00  0.00000000E+00  0.00000000E+00
  0.00000000E+00  0.00000000E+00  0.00000000E+00
  0.00000000E+00  0.00000000E+00  0.00000000E+00
  0.00000000E+00  0.00000000E+00  0.00000000E+00
  0.00000000E+00  0.00000000E+00  0.00000000E+00
  0.00000000E+00  0.00000000E+00  0.00000000E+00
  0.00000000E+00  0.00000000E+00  0.00000000E+00
  0.00000000E+00  0.00000000E+00  0.00000000E+00
  0.00000000E+00  0.00000000E+00  0.00000000E+00
  0.00000000E+00  0.00000000E+00  0.00000000E+00
  0.00000000E+00  0.00000000E+00  0.00000000E+00
  0.00000000E+00  0.00000000E+00  0.00000000E+00
  0.00000000E+00  0.00000000E+00  0.00000000E+00
  0.00000000E+00  0.00000000E+00  0.00000000E+00
  0.00000000E+00  0.00000000E+00  0.00000000E+00
  0.00000000E+00  0.00000000E+00  0.00000000E+00
  0.00000000E+00  0.00000000E+00  0.00000000E+00
  0.00000000E+00  0.00000000E+00  0.00000000E+00
  0.00000000E+00  0.00000000E+00  0.00000000E+00
  0.00000000E+00  0.00000000E+00  0.00000000E+00
  0.00000000E+00  0.00000000E+00  0.00000000E+00
  0.00000000E+00  0.00000000E+00  0.00000000E+00
  0.00000000E+00  0.00000000E+00  0.00000000E+00
  0.00000000E+00  0.00000000E+00  0.00000000E+00
  0.00000000E+00  0.00000000E+00  0.00000000E+00
  0.00000000E+00  0.00000000E+00  0.00000000E+00
  0.00000000E+00  0.00000000E+00  0.00000000E+00
  0.00000000E+00  0.00000000E+00  0.00000000E+00
  0.00000000E+00  0.00000000E+00  0.00000000E+00
  0.00000000E+00  0.00000000E+00  0.00000000E+00
  0.00000000E+00  0.00000000E+00  0.00000000E+00
  0.00000000E+00  0.00000000E+00  0.00000000E+00
  0.00000000E+00  0.00000000E+00  0.00000000E+00
  0.00000000E+00  0.00000000E+00  0.00000000E+00
  0.00000000E+00  0.00000000E+00  0.00000000E+00
  0.00000000E+00  0.00000000E+00  0.00000000E+00
  0.00000000E+00  0.00000000E+00  0.00000000E+00
  0.00000000E+00  0.00000000E+00  0.00000000E+00
  0.00000000E+00  0.00000000E+00  0.00000000E+00
  0.00000000E+00  0.00000000E+00  0.00000000E+00
  0.00000000E+00  0.00000000E+00  0.00000000E+00
  0.00000000E+00  0.00000000E+00  0.00000000E+00
  0.00000000E+00  0.00000000E+00  0.00000000E+00
  0.00000000E+00  0.00000000E+00  0.00000000E+00
  0.00000000E+00  0.00000000E+00  0.00000000E+00
  0.00000000E+00  0.00000000E+00  0.00000000E+00
  0.00000000E+00  0.00000000E+00  0.00000000E+00
  0.00000000E+00  0.00000000E+00  0.00000000E+00
  0.00000000E+00  0.00000000E+00  0.00000000E+00
  0.00000000E+00  0.00000000E+00  0.00000000E+00
  0.00000000E+00  0.00000000E+00  0.00000000E+00
  0.00000000E+00  0.00000000E+00  0.00000000E+00
  0.00000000E+00  0.00000000E+00  0.00000000E+00
  0.00000000E+00  0.00000000E+00  0.00000000E+00
  0.00000000E+00  0.00000000E+00  0.00000000E+00
  0.00000000E+00  0.00000000E+00  0.00000000E+00
  0.00000000E+00  0.00000000E+00  0.00000000E+00
  0.00000000E+00  0.00000000E+00  0.00000000E+00
  0.00000000E+00  0.00000000E+00  0.00000000E+00
  0.00000000E+00  0.00000000E+00  0.00000000E+00
  0.00000000E+00  0.00000000E+00  0.00000000E+00
  0.00000000E+00  0.00000000E+00  0.00000000E+00
  0.00000000E+00  0.00000000E+00  0.00000000E+00
  0.00000000E+00  0.00000000E+00  0.00000000E+00
  0.00000000E+00  0.00000000E+00  0.00000000E+00
  0.00000000E+00  0.00000000E+00  0.00000000E+00
  0.00000000E+00  0.00000000E+00  0.00000000E+00
  0.00000000E+00  0.00000000E+00  0.00000000E+00
  0.00000000E+00  0.00000000E+00  0.00000000E+00
  0.00000000E+00  0.00000000E+00  0.00000000E+00
  0.00000000E+00  0.00000000E+00  0.00000000E+00
  0.00000000E+00  0.00000000E+00  0.00000000E+00
  0.00000000E+00  0.00000000E+00  0.00000000E+00
  0.00000000E+00  0.00000000E+00  0.00000000E+00
  0.00000000E+00  0.00000000E+00  0.00000000E+00
  0.00000000E+00  0.00000000E+00  0.00000000E+00
  0.00000000E+00  0.00000000E+00  0.00000000E+00
  0.00000000E+00  0.00000000E+00  0.00000000E+00
  0.00000000E+00  0.00000000E+00  0.00000000E+00
  0.00000000E+00  0.00000000E+00  0.00000000E+00
  0.00000000E+00  0.00000000E+00  0.00000000E+00
  0.00000000E+00  0.00000000E+00  0.00000000E+00
  0.00000000E+00  0.00000000E+00  0.00000000E+00
  0.00000000E+00  0.00000000E+00  0.00000000E+00
  0.00000000E+00  0.00000000E+00  0.00000000E+00
  0.00000000E+00  0.00000000E+00  0.00000000E+00
  0.00000000E+00  0.00000000E+00  0.00000000E+00
  0.00000000E+00  0.00000000E+00  0.00000000E+00
  0.00000000E+00  0.00000000E+00  0.00000000E+00
  0.00000000E+00  0.00000000E+00  0.00000000E+00
  0.00000000E+00  0.00000000E+00  0.00000000E+00
  0.00000000E+00  0.00000000E+00  0.00000000E+00
  0.00000000E+00  0.00000000E+00  0.00000000E+00
  0.00000000E+00  0.00000000E+00  0.00000000E+00
  0.00000000E+00  0.00000000E+00  0.00000000E+00
  0.00000000E+00  0.00000000E+00  0.00000000E+00
  0.00000000E+00  0.00000000E+00  0.00000000E+00
  0.00000000E+00  0.00000000E+00  0.00000000E+00
  0.00000000E+00  0.00000000E+00  0.00000000E+00
  0.00000000E+00  0.00000000E+00  0.00000000E+00
  0.00000000E+00  0.00000000E+00  0.00000000E+00
  0.00000000E+00  0.00000000E+00  0.00000000E+00
  0.00000000E+00  0.00000000E+00  0.00000000E+00
  0.00000000E+00  0.00000000E+00  0.00000000E+00
  0.00000000E+00  0.00000000E+00  0.00000000E+00
  0.00000000E+00  0.00000000E+00  0.00000000E+00
  0.00000000E+00  0.00000000E+00  0.00000000E+00
  0.00000000E+00  0.00000000E+00  0.00000000E+00
  0.00000000E+00  0.00000000E+00  0.00000000E+00
  0.00000000E+00  0.00000000E+00  0.00000000E+00
  0.00000000E+00  0.00000000E+00  0.00000000E+00
  0.00000000E+00  0.00000000E+00  0.00000000E+00
  0.00000000E+00  0.00000000E+00  0.00000000E+00
  0.00000000E+00  0.00000000E+00  0.00000000E+00
  0.00000000E+00  0.00000000E+00  0.00000000E+00
  0.00000000E+00  0.00000000E+00  0.00000000E+00
  0.00000000E+00  0.00000000E+00  0.00000000E+00
  0.00000000E+00  0.00000000E+00  0.00000000E+00
  0.00000000E+00  0.00000000E+00  0.00000000E+00
  0.00000000E+00  0.00000000E+00  0.00000000E+00
  0.00000000E+00  0.00000000E+00  0.00000000E+00
  0.00000000E+00  0.00000000E+00  0.00000000E+00
  0.00000000E+00  0.00000000E+00  0.00000000E+00
  0.00000000E+00  0.00000000E+00  0.00000000E+00
  0.00000000E+00  0.00000000E+00  0.00000000E+00
  0.00000000E+00  0.00000000E+00  0.00000000E+00
  0.00000000E+00  0.00000000E+00  0.00000000E+00
  0.00000000E+00  0.00000000E+00  0.00000000E+00
