0.0                                     
   3.00000000000000     
     4.6149099999999992    0.0000000000000000    0.0000000000000000
     0.0000000000000000    4.2330936244502082    0.0000000000000000
     0.0000000000000000    0.0000000000000000    4.2321743260015579
   Mo   Nb   Ta   W 
    32    32    32    32
Selective dynamics
Direct
  0.0030118653576078  0.9990565579516424  0.9981488481795189   T   T   T
  0.9983758559926821  0.0014186540594986  0.7491979965115018   T   T   T
  0.9999698294416871  0.7518020239067611  0.0001206499617533   T   T   T
  0.0040475934270981  0.7520026127243494  0.2485593828106047   T   T   T
  0.9964760609753127  0.7535698826225331  0.7506948957629126   T   T   T
  0.1213840055668618  0.1241642648635531  0.6239161515716771   T   T   T
  0.1185665332298140  0.1234819325289077  0.8740900075895538   T   T   T
  0.1257321034260559  0.6279473627005476  0.1262436329520489   T   T   T
  0.1248231499109487  0.8739507022437044  0.1265762643843208   T   T   T
  0.2473275869122298  0.9986227539912195  0.2516556601443243   T   T   T
  0.2489189673196013  0.7514458994977707  0.2482323087810151   T   T   T
  0.2478647924412311  0.7529441096458304  0.4984711258967465   T   T   T
  0.3757953373883632  0.1244999965902534  0.6239063095777859   T   T   T
  0.3734969855537114  0.6254899189534062  0.1262558656999787   T   T   T
  0.3715304197054336  0.8752378566456851  0.3745429609032381   T   T   T
  0.5006418573947136  0.2480615185196275  0.5020467530469390   T   T   T
  0.4986354186977916  0.5017457682543739  0.2503272943803120   T   T   T
  0.5017853705481753  0.4990636728877618  0.4997681290440776   T   T   T
  0.6256840341867613  0.1253959674338891  0.6254846721863628   T   T   T
  0.6266442912061539  0.1263807498628833  0.8718330671883533   T   T   T
  0.6228703526316106  0.3740303777774743  0.6266535992996765   T   T   T
  0.6258103586221679  0.3762594726637316  0.8717764231587516   T   T   T
  0.6221465795998170  0.6260901625539868  0.1244818389092854   T   T   T
  0.6204504156673923  0.6258121399944326  0.3745309021061587   T   T   T
  0.7488753306091519  0.2488511742978172  0.7504664883808355   T   T   T
  0.7480711309818510  0.4993471342628049  0.7506743265284830   T   T   T
  0.7505734865995977  0.7518819946460853  0.5007796956191781   T   T   T
  0.8768381418092653  0.1242393096241441  0.6260680694116098   T   T   T
  0.8727644868176555  0.3733948574515278  0.8739625981262225   T   T   T
  0.8783937135664599  0.6269851941192852  0.1241302341655361   T   T   T
  0.8789735768825364  0.8763001989995517  0.3762832165175123   T   T   T
  0.8793222555460620  0.8759258831227668  0.8747203011955204   T   T   T
  0.9955481110107990  0.5036303896031827  0.9994386119418124   T   T   T
  0.1266730468687765  0.6276179822238905  0.3715048653282768   T   T   T
  0.1212242746805249  0.6261216143364301  0.6225973600295500   T   T   T
  0.1198132180945254  0.6282132944614661  0.8772073298249077   T   T   T
  0.2441200922176298  0.0004899782857466  0.0013797721345584   T   T   T
  0.2419854952493054  0.0003238295050239  0.7482389611731988   T   T   T
  0.2489168545492608  0.2465810989289811  0.7483610460153245   T   T   T
  0.2494918523680897  0.5025807372319068  0.0009139036458190   T   T   T
  0.3813659557385480  0.3725425602958318  0.6237385791979221   T   T   T
  0.3804117047262290  0.3750835688407409  0.8739749416155627   T   T   T
  0.3748260199203283  0.6255864050989203  0.3720573165875513   T   T   T
  0.3784587173272905  0.6251491073160439  0.6233890843739035   T   T   T
  0.3698508451815713  0.8728571290806834  0.1278010993610406   T   T   T
  0.5003537020227925  0.0003053224805558  0.5020151947719914   T   T   T
  0.5024578955541991  0.2491388584794952  0.9983723652268265   T   T   T
  0.4997085674563061  0.7485002357078524  0.0034632284138764   T   T   T
  0.5027293293226379  0.7500035110304213  0.4985780393127441   T   T   T
  0.6213540003115511  0.3772250544909570  0.1248308678167230   T   T   T
  0.6185305113299836  0.3758159298198585  0.3776565219720103   T   T   T
  0.7557611567069892 -0.0000590084540867  0.9975620304975764   T   T   T
  0.7539636583383782  0.0017718283986522  0.7478921671221368   T   T   T
  0.7517217593980142  0.2508593939422087  0.9961841891340550   T   T   T
  0.7462329396992454  0.2475332597353729  0.5032344971711786   T   T   T
  0.7509391801092397  0.5011151893142132  0.9993095208122955   T   T   T
  0.7464868762352048  0.5033155498187775  0.2492217351512571   T   T   T
  0.7433460918034166  0.5006771071834578  0.5003469215796654   T   T   T
  0.7525905855219400  0.7481944940320604  0.2492548498617680   T   T   T
  0.8808796398604856  0.1233618727003217  0.1238044351961671   T   T   T
  0.8721511273555167  0.3733546082157058  0.6252974319877137   T   T   T
  0.8770188157476350  0.6254265890115730  0.3742299660918310   T   T   T
  0.8716989822372939  0.6261431160788734  0.6242296948066001   T   T   T
  0.8839942404720552  0.8732296789865730  0.1241357376120668   T   T   T
  0.0050266739421753  0.2467029720509519  0.2502380160026866   T   T   T
  0.9927729143725186  0.4992470220739311  0.7520621056805191   T   T   T
  0.9990820812059180  0.7554572453803114  0.4986136427120657   T   T   T
  0.1246257247730144  0.3776137610793737  0.1259235898801127   T   T   T
  0.1242223506433359  0.3759855579501759  0.3764179241593721   T   T   T
  0.1210065045132213  0.3714156059927107  0.6230525413528197   T   T   T
  0.1201287423314342  0.3730728746554904  0.8742214870752808   T   T   T
  0.2474846348460137  0.2464329197320283  0.0004981597173475   T   T   T
  0.2503387723842949  0.2475993853784795  0.2497107442115944   T   T   T
  0.2536103389096629  0.4984280707429508  0.4999011327449002   T   T   T
  0.2496408085806725  0.5010226777932758  0.7477809023154197   T   T   T
  0.2443522645068339  0.7510845675190283  0.7503636621761981   T   T   T
  0.3720109589310597  0.1225615961639618  0.3776011121648286   T   T   T
  0.3769255866045138  0.1238995528506731  0.8714443992283197   T   T   T
  0.3756570454412501  0.3788140864203020  0.1256770435230073   T   T   T
  0.3775529457768913  0.6254359942429905  0.8765965599486468   T   T   T
  0.3716768265885325  0.8766131411301336  0.6236030915144415   T   T   T
  0.3733702587540343  0.8757987268683037  0.8741136558155768   T   T   T
  0.4990211747705341  0.0010768465838505  0.0002012703412625   T   T   T
  0.4971636009015233  0.2482747062406689  0.2525756353007604   T   T   T
  0.5050596196704349  0.7508593682703258  0.7462011362521179   T   T   T
  0.6246993185754569  0.1214984240637252  0.1261693562831408   T   T   T
  0.6270380654139546  0.6237470687155112  0.8749837291277578   T   T   T
  0.6250787469933767  0.8734379685995712  0.1272296632233998   T   T   T
  0.6259308987229757  0.8736858390240536  0.3755025532565858   T   T   T
  0.6281486418408637  0.8750083248561578  0.8760569404916705   T   T   T
  0.7546972365775219  0.9983388224937378  0.2537432709357758   T   T   T
  0.7472369090618236  0.2478101863158952  0.2521141398430799   T   T   T
  0.7525629821388742  0.7527218366697559  0.7491851921377611   T   T   T
  0.8799163708005683  0.1238789461348311  0.3790096430309189   T   T   T
  0.8786155968151693  0.3759025399047428  0.1262318917129668   T   T   T
  0.8788880592485149  0.3752845790363982  0.3765430515254363   T   T   T
  0.0063016246373322  0.9985372492331601  0.2517878649347809   T   T   T
  0.0025077032703011  0.9990426344629635  0.5015522224836358   T   T   T
  0.0002168186971169  0.2476091971870460  0.9977165680086074   T   T   T
  0.0011048416495683  0.2452705965049529  0.5024054082209959   T   T   T
  0.9961223847212799  0.2470665232007332  0.7506352485085056   T   T   T
  0.0010732558307960  0.5033167803951090  0.2481532954708026   T   T   T
  0.9985491294850122  0.5016683874134255  0.5003971860671135   T   T   T
  0.1233332910821021  0.1222356385016145  0.1257228176272176   T   T   T
  0.1266300752256043  0.1223700839059252  0.3772882168643849   T   T   T
  0.1274013448478991  0.8761969585155752  0.3741984433438926   T   T   T
  0.1222464342117053  0.8773694146190378  0.6231444525453033   T   T   T
  0.1184936522833132  0.8751929681352041  0.8755814933316339   T   T   T
  0.2461330884210704  0.0007985068182867  0.5002246198225369   T   T   T
  0.2502349275874325  0.2475231718627548  0.4996128067117502   T   T   T
  0.2523032195541516  0.5016727181577401  0.2501597995810833   T   T   T
  0.2446316060523420  0.7515100369475357  0.0012638118410551   T   T   T
  0.3737640539785788  0.1225964647975199  0.1273746064959229   T   T   T
  0.3746826244791908  0.3745734969159867  0.3757129519033087   T   T   T
  0.4968870039240905  0.9988404786588247  0.2519293293099285   T   T   T
  0.5049224035809505  0.0021508256328816  0.7479665724568748   T   T   T
  0.5068216022276213  0.2491421604895908  0.7480667020854281   T   T   T
  0.5026108763174014  0.5010755534752450  0.0006275420853470   T   T   T
  0.5063134265609950  0.4983830075109854  0.7490811402416274   T   T   T
  0.4981480736241118  0.7483029907440175  0.2510056277729186   T   T   T
  0.6222878801474947  0.1214178139546155  0.3777021873050607   T   T   T
  0.6262878668060770  0.6232553518125832  0.6253086476324319   T   T   T
  0.6288565479657374  0.8769490037982474  0.6230579878247267   T   T   T
  0.7513405675052206  0.0001131237977404  0.5019694916672595   T   T   T
  0.7554242297202074  0.7485445163268817  0.9993425342809475   T   T   T
  0.8798333271570570  0.1253615946419976  0.8730985970100393   T   T   T
  0.8731336252498120  0.6277280630494020  0.8750349014442682   T   T   T
  0.8774527031299215  0.8773830820186351  0.6244877456751274   T   T   T
 
  0.00000000E+00  0.00000000E+00  0.00000000E+00
  0.00000000E+00  0.00000000E+00  0.00000000E+00
  0.00000000E+00  0.00000000E+00  0.00000000E+00
  0.00000000E+00  0.00000000E+00  0.00000000E+00
  0.00000000E+00  0.00000000E+00  0.00000000E+00
  0.00000000E+00  0.00000000E+00  0.00000000E+00
  0.00000000E+00  0.00000000E+00  0.00000000E+00
  0.00000000E+00  0.00000000E+00  0.00000000E+00
  0.00000000E+00  0.00000000E+00  0.00000000E+00
  0.00000000E+00  0.00000000E+00  0.00000000E+00
  0.00000000E+00  0.00000000E+00  0.00000000E+00
  0.00000000E+00  0.00000000E+00  0.00000000E+00
  0.00000000E+00  0.00000000E+00  0.00000000E+00
  0.00000000E+00  0.00000000E+00  0.00000000E+00
  0.00000000E+00  0.00000000E+00  0.00000000E+00
  0.00000000E+00  0.00000000E+00  0.00000000E+00
  0.00000000E+00  0.00000000E+00  0.00000000E+00
  0.00000000E+00  0.00000000E+00  0.00000000E+00
  0.00000000E+00  0.00000000E+00  0.00000000E+00
  0.00000000E+00  0.00000000E+00  0.00000000E+00
  0.00000000E+00  0.00000000E+00  0.00000000E+00
  0.00000000E+00  0.00000000E+00  0.00000000E+00
  0.00000000E+00  0.00000000E+00  0.00000000E+00
  0.00000000E+00  0.00000000E+00  0.00000000E+00
  0.00000000E+00  0.00000000E+00  0.00000000E+00
  0.00000000E+00  0.00000000E+00  0.00000000E+00
  0.00000000E+00  0.00000000E+00  0.00000000E+00
  0.00000000E+00  0.00000000E+00  0.00000000E+00
  0.00000000E+00  0.00000000E+00  0.00000000E+00
  0.00000000E+00  0.00000000E+00  0.00000000E+00
  0.00000000E+00  0.00000000E+00  0.00000000E+00
  0.00000000E+00  0.00000000E+00  0.00000000E+00
  0.00000000E+00  0.00000000E+00  0.00000000E+00
  0.00000000E+00  0.00000000E+00  0.00000000E+00
  0.00000000E+00  0.00000000E+00  0.00000000E+00
  0.00000000E+00  0.00000000E+00  0.00000000E+00
  0.00000000E+00  0.00000000E+00  0.00000000E+00
  0.00000000E+00  0.00000000E+00  0.00000000E+00
  0.00000000E+00  0.00000000E+00  0.00000000E+00
  0.00000000E+00  0.00000000E+00  0.00000000E+00
  0.00000000E+00  0.00000000E+00  0.00000000E+00
  0.00000000E+00  0.00000000E+00  0.00000000E+00
  0.00000000E+00  0.00000000E+00  0.00000000E+00
  0.00000000E+00  0.00000000E+00  0.00000000E+00
  0.00000000E+00  0.00000000E+00  0.00000000E+00
  0.00000000E+00  0.00000000E+00  0.00000000E+00
  0.00000000E+00  0.00000000E+00  0.00000000E+00
  0.00000000E+00  0.00000000E+00  0.00000000E+00
  0.00000000E+00  0.00000000E+00  0.00000000E+00
  0.00000000E+00  0.00000000E+00  0.00000000E+00
  0.00000000E+00  0.00000000E+00  0.00000000E+00
  0.00000000E+00  0.00000000E+00  0.00000000E+00
  0.00000000E+00  0.00000000E+00  0.00000000E+00
  0.00000000E+00  0.00000000E+00  0.00000000E+00
  0.00000000E+00  0.00000000E+00  0.00000000E+00
  0.00000000E+00  0.00000000E+00  0.00000000E+00
  0.00000000E+00  0.00000000E+00  0.00000000E+00
  0.00000000E+00  0.00000000E+00  0.00000000E+00
  0.00000000E+00  0.00000000E+00  0.00000000E+00
  0.00000000E+00  0.00000000E+00  0.00000000E+00
  0.00000000E+00  0.00000000E+00  0.00000000E+00
  0.00000000E+00  0.00000000E+00  0.00000000E+00
  0.00000000E+00  0.00000000E+00  0.00000000E+00
  0.00000000E+00  0.00000000E+00  0.00000000E+00
  0.00000000E+00  0.00000000E+00  0.00000000E+00
  0.00000000E+00  0.00000000E+00  0.00000000E+00
  0.00000000E+00  0.00000000E+00  0.00000000E+00
  0.00000000E+00  0.00000000E+00  0.00000000E+00
  0.00000000E+00  0.00000000E+00  0.00000000E+00
  0.00000000E+00  0.00000000E+00  0.00000000E+00
  0.00000000E+00  0.00000000E+00  0.00000000E+00
  0.00000000E+00  0.00000000E+00  0.00000000E+00
  0.00000000E+00  0.00000000E+00  0.00000000E+00
  0.00000000E+00  0.00000000E+00  0.00000000E+00
  0.00000000E+00  0.00000000E+00  0.00000000E+00
  0.00000000E+00  0.00000000E+00  0.00000000E+00
  0.00000000E+00  0.00000000E+00  0.00000000E+00
  0.00000000E+00  0.00000000E+00  0.00000000E+00
  0.00000000E+00  0.00000000E+00  0.00000000E+00
  0.00000000E+00  0.00000000E+00  0.00000000E+00
  0.00000000E+00  0.00000000E+00  0.00000000E+00
  0.00000000E+00  0.00000000E+00  0.00000000E+00
  0.00000000E+00  0.00000000E+00  0.00000000E+00
  0.00000000E+00  0.00000000E+00  0.00000000E+00
  0.00000000E+00  0.00000000E+00  0.00000000E+00
  0.00000000E+00  0.00000000E+00  0.00000000E+00
  0.00000000E+00  0.00000000E+00  0.00000000E+00
  0.00000000E+00  0.00000000E+00  0.00000000E+00
  0.00000000E+00  0.00000000E+00  0.00000000E+00
  0.00000000E+00  0.00000000E+00  0.00000000E+00
  0.00000000E+00  0.00000000E+00  0.00000000E+00
  0.00000000E+00  0.00000000E+00  0.00000000E+00
  0.00000000E+00  0.00000000E+00  0.00000000E+00
  0.00000000E+00  0.00000000E+00  0.00000000E+00
  0.00000000E+00  0.00000000E+00  0.00000000E+00
  0.00000000E+00  0.00000000E+00  0.00000000E+00
  0.00000000E+00  0.00000000E+00  0.00000000E+00
  0.00000000E+00  0.00000000E+00  0.00000000E+00
  0.00000000E+00  0.00000000E+00  0.00000000E+00
  0.00000000E+00  0.00000000E+00  0.00000000E+00
  0.00000000E+00  0.00000000E+00  0.00000000E+00
  0.00000000E+00  0.00000000E+00  0.00000000E+00
  0.00000000E+00  0.00000000E+00  0.00000000E+00
  0.00000000E+00  0.00000000E+00  0.00000000E+00
  0.00000000E+00  0.00000000E+00  0.00000000E+00
  0.00000000E+00  0.00000000E+00  0.00000000E+00
  0.00000000E+00  0.00000000E+00  0.00000000E+00
  0.00000000E+00  0.00000000E+00  0.00000000E+00
  0.00000000E+00  0.00000000E+00  0.00000000E+00
  0.00000000E+00  0.00000000E+00  0.00000000E+00
  0.00000000E+00  0.00000000E+00  0.00000000E+00
  0.00000000E+00  0.00000000E+00  0.00000000E+00
  0.00000000E+00  0.00000000E+00  0.00000000E+00
  0.00000000E+00  0.00000000E+00  0.00000000E+00
  0.00000000E+00  0.00000000E+00  0.00000000E+00
  0.00000000E+00  0.00000000E+00  0.00000000E+00
  0.00000000E+00  0.00000000E+00  0.00000000E+00
  0.00000000E+00  0.00000000E+00  0.00000000E+00
  0.00000000E+00  0.00000000E+00  0.00000000E+00
  0.00000000E+00  0.00000000E+00  0.00000000E+00
  0.00000000E+00  0.00000000E+00  0.00000000E+00
  0.00000000E+00  0.00000000E+00  0.00000000E+00
  0.00000000E+00  0.00000000E+00  0.00000000E+00
  0.00000000E+00  0.00000000E+00  0.00000000E+00
  0.00000000E+00  0.00000000E+00  0.00000000E+00
  0.00000000E+00  0.00000000E+00  0.00000000E+00
  0.00000000E+00  0.00000000E+00  0.00000000E+00
  0.00000000E+00  0.00000000E+00  0.00000000E+00
