0.0                                     
   3.00000000000000     
     4.4423899999999996    0.0000000000000000    0.0000000000000000
     0.0000000000000000    4.2781669523343115    0.0000000000000000
     0.0000000000000000    0.0000000000000000    4.2751557776043594
   Mo   Nb   Ta   W 
    32    32    32    32
Selective dynamics
Direct
  0.0023945977455976  0.9991033775866744  0.9979940782409178   T   T   T
  0.9986916225406217  0.0014615293606137  0.7493544696675147   T   T   T
  0.0000012277439105  0.7522141120827592  0.0000576675661573   T   T   T
  0.0032170309911696  0.7519336277140211  0.2482833639506483   T   T   T
  0.9973509900873804  0.7538812848302415  0.7506136637781826   T   T   T
  0.1224546919486679  0.1239476352962377  0.6239211548717795   T   T   T
  0.1203029068671668  0.1232179587385413  0.8741203094986908   T   T   T
  0.1255516178605891  0.6281914924267080  0.1264319852002056   T   T   T
  0.1249239611782673  0.8738312866391638  0.1266747513078977   T   T   T
  0.2484527059747657  0.9983253466330719  0.2515572015243879   T   T   T
  0.2495469062021723  0.7515731537547123  0.2483370495555628   T   T   T
  0.2483197288172413  0.7533489099458615  0.4980239086318171   T   T   T
  0.3754812409819976  0.1248980490961225  0.6236301816028403   T   T   T
  0.3737582887849154  0.6254811674757427  0.1263595598690759   T   T   T
  0.3724302631961303  0.8750978552689089  0.3742462185789693   T   T   T
  0.5002107780565311  0.2483668335023517  0.5021211646822661   T   T   T
  0.4990413177705886  0.5017928429517329  0.2503553313417048   T   T   T
  0.5012750569517405  0.4989474018450292  0.4997165049416184   T   T   T
  0.6255336942164605  0.1258645694766513  0.6258729096944771   T   T   T
  0.6267986947950495  0.1266233341366936  0.8715651295175176   T   T   T
  0.6233055989312429  0.3741343840223541  0.6268406177586601   T   T   T
  0.6256940917005757  0.3762547654229543  0.8716885610763234   T   T   T
  0.6230627805057031  0.6260041355781161  0.1245631309598236   T   T   T
  0.6219769894185366  0.6257242833332124  0.3746114377990388   T   T   T
  0.7491050390364384  0.2488858873491920  0.7505918724333732   T   T   T
  0.7483164241218049  0.4990707420976085  0.7508249137935380   T   T   T
  0.7506622531860857  0.7519073530165324  0.5008115378928223   T   T   T
  0.8763476069199709  0.1241977745461678  0.6263323451669807   T   T   T
  0.8730945156643027  0.3733187797517014  0.8737862625730515   T   T   T
  0.8775709837716195  0.6270277909694248  0.1242293271020864   T   T   T
  0.8780215846072293  0.8760222625983092  0.3761745290734442   T   T   T
  0.8784571010350466  0.8760174857152198  0.8746583195479022   T   T   T
  0.9964557886428907  0.5038469339389468  0.9993610837658732   T   T   T
  0.1262082914863977  0.6279491681760209  0.3711768064187677   T   T   T
  0.1220727967438575  0.6271159570779860  0.6224704301922410   T   T   T
  0.1211391363779331  0.6290044411422357  0.8774325375594932   T   T   T
  0.2456148274241233  0.0001777179700800  0.0017131302789678   T   T   T
  0.2442692305122019  0.0003674597742886  0.7481372022670504   T   T   T
  0.2488907788308623  0.2461763944135129  0.7483756259886846   T   T   T
  0.2490910571572667  0.5028882962552788  0.0012900703855135   T   T   T
  0.3791400768783680  0.3725607558558883  0.6235703206485710   T   T   T
  0.3782645400440330  0.3752228562944422  0.8741647181965195   T   T   T
  0.3748524135951004  0.6254671891630739  0.3716448344740806   T   T   T
  0.3774191654774848  0.6249615851090956  0.6225038610394701   T   T   T
  0.3713383693139331  0.8727530599623654  0.1282057712356312   T   T   T
  0.5004470195270089  0.0005246195854381  0.5022167209843658   T   T   T
  0.5019622128429361  0.2491979447790264  0.9982050005044012   T   T   T
  0.4996433108955529  0.7483362237004110  0.0033938783058304   T   T   T
  0.5021783281029074  0.7496835143340634  0.4984169035362276   T   T   T
  0.6224828785667478  0.3773706513449316  0.1249022812168500   T   T   T
  0.6204058209627238  0.3761640542079704  0.3781738716863440   T   T   T
  0.7543793104301917  0.0000661356178170  0.9969177146657504   T   T   T
  0.7525993161601756  0.0016095581276746  0.7479101034772697   T   T   T
  0.7516515534957106  0.2510410830181390  0.9955676415569957   T   T   T
  0.7471685072825042  0.2474652239235805  0.5040830764768931   T   T   T
  0.7505816678182110  0.5010793709750210  0.9992621039642525   T   T   T
  0.7474922856155868  0.5035768454375377  0.2493972500906730   T   T   T
  0.7450746813845420  0.5006180742555043  0.5009529163856220   T   T   T
  0.7524810676244920  0.7479368285990573  0.2493904166140646   T   T   T
  0.8795137008596356  0.1228087701259528  0.1233308815056526   T   T   T
  0.8727949958482644  0.3733177295486982  0.6257688232019579   T   T   T
  0.8764493166155676  0.6256459897341210  0.3742274969006228   T   T   T
  0.8722473830650066  0.6262748280471158  0.6244408985418981   T   T   T
  0.8816236097520068  0.8729028746479472  0.1236161816933646   T   T   T
  0.0034338891554475  0.2462183910444248  0.2501924250540040   T   T   T
  0.9944074135531709  0.4997027122912621  0.7521924646343520   T   T   T
  0.9992246106089319  0.7558205359809812  0.4984750721825965   T   T   T
  0.1243704366860061  0.3773347663302352  0.1261947636527996   T   T   T
  0.1240043404630030  0.3761001483665475  0.3761071247582610   T   T   T
  0.1217808063565787  0.3712487776235788  0.6228126584080349   T   T   T
  0.1213572737140107  0.3730060468434361  0.8745830688770011   T   T   T
  0.2478572015374285  0.2462040529776244  0.0007667553239345   T   T   T
  0.2504143670347349  0.2472356043467279  0.2498619422128304   T   T   T
  0.2525807081789970  0.4989304145361156  0.4993467599955778   T   T   T
  0.2494359674861532  0.5012328612632593  0.7478415415249583   T   T   T
  0.2458214898067486  0.7514989037230922  0.7500744307989913   T   T   T
  0.3731154292955520  0.1226649602755100  0.3774270949621957   T   T   T
  0.3764632130984883  0.1243674725134399  0.8712451062540972   T   T   T
  0.3753227290245807  0.3791217504487010  0.1257639289327055   T   T   T
  0.3767289040873361  0.6249681703904187  0.8767377111573306   T   T   T
  0.3723007807466485  0.8767710290553450  0.6230714538634667   T   T   T
  0.3734054918434238  0.8755017969258971  0.8744797204777547   T   T   T
  0.4994295503395010  0.0015042482669443  0.0000257546907186   T   T   T
  0.4984421649860393  0.2488277247811612  0.2526936535619650   T   T   T
  0.5034644771410623  0.7502303802379581  0.7459560531286848   T   T   T
  0.6250647599417574  0.1218965410272708  0.1262368850891034   T   T   T
  0.6261303152220661  0.6230435109214058  0.8747092876513044   T   T   T
  0.6254777421356175  0.8733008037888641  0.1273107082852250   T   T   T
  0.6260817292091199  0.8734481601002638  0.3756703466057042   T   T   T
  0.6270745420063827  0.8746333517115559  0.8758058393985030   T   T   T
  0.7540520857816863  0.9981441924550725  0.2540412600552659   T   T   T
  0.7479109700116698  0.2476485523320245  0.2523439455610093   T   T   T
  0.7521933496548182  0.7525922018405872  0.7491190185180132   T   T   T
  0.8787784810865419  0.1234357036853873  0.3793165532771233   T   T   T
  0.8780530988521414  0.3758885292870217  0.1257458738717101   T   T   T
  0.8782943624327738  0.3753015461754285  0.3768108761844534   T   T   T
  0.0048580861103616  0.9981414596340794  0.2515267474533796   T   T   T
  0.0017081006382202  0.9990171979087422  0.5016658953758371   T   T   T
  0.0002101887890596  0.2474727951073423  0.9974055869519455   T   T   T
  0.0007646034021731  0.2451646993078181  0.5025614463584896   T   T   T
  0.9968600010832946  0.2468217284878494  0.7507789136598203   T   T   T
  0.0006042264042790  0.5034168470689085  0.2479353444974893   T   T   T
  0.9987149466061827  0.5017403114610088  0.5004380016183663   T   T   T
  0.1238285633665055  0.1215182055647898  0.1257924127795688   T   T   T
  0.1261986255814657  0.1221687207187800  0.3773299078771321   T   T   T
  0.1268903538144753  0.8764069820625713  0.3739346802340359   T   T   T
  0.1229419257310567  0.8778335417655245  0.6233417844676968   T   T   T
  0.1201669940201914  0.8753183043864180  0.8759149211995650   T   T   T
  0.2469902997541182  0.0006876264879703  0.4999601750907280   T   T   T
  0.2501235058864416  0.2472813414187073  0.4995019662585134   T   T   T
  0.2514218394929951  0.5019897228011888  0.2500469701822668   T   T   T
  0.2458459682880102  0.7515510001832151  0.0018982081581919   T   T   T
  0.3744044670261736  0.1223592075112765  0.1277524161270676   T   T   T
  0.3744118912698517  0.3748081551248390  0.3756343561330867   T   T   T
  0.4979783581494863  0.9988419095453536  0.2520763841078389   T   T   T
  0.5035098272455262  0.0024243922844082  0.7480520829076698   T   T   T
  0.5049556676504011  0.2493642369788915  0.7480537571408719   T   T   T
  0.5018073539714777  0.5007873606919576  0.0007954987418471   T   T   T
  0.5041045544947471  0.4977278057269771  0.7487282323307525   T   T   T
  0.4988757421160503  0.7476084742152712  0.2508592526134872   T   T   T
  0.6235739732750621  0.1218234451043547  0.3782244466813474   T   T   T
  0.6259035539945104  0.6229298010362020  0.6250678863991546   T   T   T
  0.6278249241299820  0.8769549453891833  0.6230633230938120   T   T   T
  0.7514334224131524  0.0000808102717607  0.5025313578005731   T   T   T
  0.7543779128415341  0.7483935886254169  0.9991214381675406   T   T   T
  0.8784185963633349  0.1253537752882281  0.8727880582627837   T   T   T
  0.8735020037644198  0.6278661003206946  0.8750206212169424   T   T   T
  0.8770311099033269  0.8775421176668894  0.6246678342033422   T   T   T
 
  0.00000000E+00  0.00000000E+00  0.00000000E+00
  0.00000000E+00  0.00000000E+00  0.00000000E+00
  0.00000000E+00  0.00000000E+00  0.00000000E+00
  0.00000000E+00  0.00000000E+00  0.00000000E+00
  0.00000000E+00  0.00000000E+00  0.00000000E+00
  0.00000000E+00  0.00000000E+00  0.00000000E+00
  0.00000000E+00  0.00000000E+00  0.00000000E+00
  0.00000000E+00  0.00000000E+00  0.00000000E+00
  0.00000000E+00  0.00000000E+00  0.00000000E+00
  0.00000000E+00  0.00000000E+00  0.00000000E+00
  0.00000000E+00  0.00000000E+00  0.00000000E+00
  0.00000000E+00  0.00000000E+00  0.00000000E+00
  0.00000000E+00  0.00000000E+00  0.00000000E+00
  0.00000000E+00  0.00000000E+00  0.00000000E+00
  0.00000000E+00  0.00000000E+00  0.00000000E+00
  0.00000000E+00  0.00000000E+00  0.00000000E+00
  0.00000000E+00  0.00000000E+00  0.00000000E+00
  0.00000000E+00  0.00000000E+00  0.00000000E+00
  0.00000000E+00  0.00000000E+00  0.00000000E+00
  0.00000000E+00  0.00000000E+00  0.00000000E+00
  0.00000000E+00  0.00000000E+00  0.00000000E+00
  0.00000000E+00  0.00000000E+00  0.00000000E+00
  0.00000000E+00  0.00000000E+00  0.00000000E+00
  0.00000000E+00  0.00000000E+00  0.00000000E+00
  0.00000000E+00  0.00000000E+00  0.00000000E+00
  0.00000000E+00  0.00000000E+00  0.00000000E+00
  0.00000000E+00  0.00000000E+00  0.00000000E+00
  0.00000000E+00  0.00000000E+00  0.00000000E+00
  0.00000000E+00  0.00000000E+00  0.00000000E+00
  0.00000000E+00  0.00000000E+00  0.00000000E+00
  0.00000000E+00  0.00000000E+00  0.00000000E+00
  0.00000000E+00  0.00000000E+00  0.00000000E+00
  0.00000000E+00  0.00000000E+00  0.00000000E+00
  0.00000000E+00  0.00000000E+00  0.00000000E+00
  0.00000000E+00  0.00000000E+00  0.00000000E+00
  0.00000000E+00  0.00000000E+00  0.00000000E+00
  0.00000000E+00  0.00000000E+00  0.00000000E+00
  0.00000000E+00  0.00000000E+00  0.00000000E+00
  0.00000000E+00  0.00000000E+00  0.00000000E+00
  0.00000000E+00  0.00000000E+00  0.00000000E+00
  0.00000000E+00  0.00000000E+00  0.00000000E+00
  0.00000000E+00  0.00000000E+00  0.00000000E+00
  0.00000000E+00  0.00000000E+00  0.00000000E+00
  0.00000000E+00  0.00000000E+00  0.00000000E+00
  0.00000000E+00  0.00000000E+00  0.00000000E+00
  0.00000000E+00  0.00000000E+00  0.00000000E+00
  0.00000000E+00  0.00000000E+00  0.00000000E+00
  0.00000000E+00  0.00000000E+00  0.00000000E+00
  0.00000000E+00  0.00000000E+00  0.00000000E+00
  0.00000000E+00  0.00000000E+00  0.00000000E+00
  0.00000000E+00  0.00000000E+00  0.00000000E+00
  0.00000000E+00  0.00000000E+00  0.00000000E+00
  0.00000000E+00  0.00000000E+00  0.00000000E+00
  0.00000000E+00  0.00000000E+00  0.00000000E+00
  0.00000000E+00  0.00000000E+00  0.00000000E+00
  0.00000000E+00  0.00000000E+00  0.00000000E+00
  0.00000000E+00  0.00000000E+00  0.00000000E+00
  0.00000000E+00  0.00000000E+00  0.00000000E+00
  0.00000000E+00  0.00000000E+00  0.00000000E+00
  0.00000000E+00  0.00000000E+00  0.00000000E+00
  0.00000000E+00  0.00000000E+00  0.00000000E+00
  0.00000000E+00  0.00000000E+00  0.00000000E+00
  0.00000000E+00  0.00000000E+00  0.00000000E+00
  0.00000000E+00  0.00000000E+00  0.00000000E+00
  0.00000000E+00  0.00000000E+00  0.00000000E+00
  0.00000000E+00  0.00000000E+00  0.00000000E+00
  0.00000000E+00  0.00000000E+00  0.00000000E+00
  0.00000000E+00  0.00000000E+00  0.00000000E+00
  0.00000000E+00  0.00000000E+00  0.00000000E+00
  0.00000000E+00  0.00000000E+00  0.00000000E+00
  0.00000000E+00  0.00000000E+00  0.00000000E+00
  0.00000000E+00  0.00000000E+00  0.00000000E+00
  0.00000000E+00  0.00000000E+00  0.00000000E+00
  0.00000000E+00  0.00000000E+00  0.00000000E+00
  0.00000000E+00  0.00000000E+00  0.00000000E+00
  0.00000000E+00  0.00000000E+00  0.00000000E+00
  0.00000000E+00  0.00000000E+00  0.00000000E+00
  0.00000000E+00  0.00000000E+00  0.00000000E+00
  0.00000000E+00  0.00000000E+00  0.00000000E+00
  0.00000000E+00  0.00000000E+00  0.00000000E+00
  0.00000000E+00  0.00000000E+00  0.00000000E+00
  0.00000000E+00  0.00000000E+00  0.00000000E+00
  0.00000000E+00  0.00000000E+00  0.00000000E+00
  0.00000000E+00  0.00000000E+00  0.00000000E+00
  0.00000000E+00  0.00000000E+00  0.00000000E+00
  0.00000000E+00  0.00000000E+00  0.00000000E+00
  0.00000000E+00  0.00000000E+00  0.00000000E+00
  0.00000000E+00  0.00000000E+00  0.00000000E+00
  0.00000000E+00  0.00000000E+00  0.00000000E+00
  0.00000000E+00  0.00000000E+00  0.00000000E+00
  0.00000000E+00  0.00000000E+00  0.00000000E+00
  0.00000000E+00  0.00000000E+00  0.00000000E+00
  0.00000000E+00  0.00000000E+00  0.00000000E+00
  0.00000000E+00  0.00000000E+00  0.00000000E+00
  0.00000000E+00  0.00000000E+00  0.00000000E+00
  0.00000000E+00  0.00000000E+00  0.00000000E+00
  0.00000000E+00  0.00000000E+00  0.00000000E+00
  0.00000000E+00  0.00000000E+00  0.00000000E+00
  0.00000000E+00  0.00000000E+00  0.00000000E+00
  0.00000000E+00  0.00000000E+00  0.00000000E+00
  0.00000000E+00  0.00000000E+00  0.00000000E+00
  0.00000000E+00  0.00000000E+00  0.00000000E+00
  0.00000000E+00  0.00000000E+00  0.00000000E+00
  0.00000000E+00  0.00000000E+00  0.00000000E+00
  0.00000000E+00  0.00000000E+00  0.00000000E+00
  0.00000000E+00  0.00000000E+00  0.00000000E+00
  0.00000000E+00  0.00000000E+00  0.00000000E+00
  0.00000000E+00  0.00000000E+00  0.00000000E+00
  0.00000000E+00  0.00000000E+00  0.00000000E+00
  0.00000000E+00  0.00000000E+00  0.00000000E+00
  0.00000000E+00  0.00000000E+00  0.00000000E+00
  0.00000000E+00  0.00000000E+00  0.00000000E+00
  0.00000000E+00  0.00000000E+00  0.00000000E+00
  0.00000000E+00  0.00000000E+00  0.00000000E+00
  0.00000000E+00  0.00000000E+00  0.00000000E+00
  0.00000000E+00  0.00000000E+00  0.00000000E+00
  0.00000000E+00  0.00000000E+00  0.00000000E+00
  0.00000000E+00  0.00000000E+00  0.00000000E+00
  0.00000000E+00  0.00000000E+00  0.00000000E+00
  0.00000000E+00  0.00000000E+00  0.00000000E+00
  0.00000000E+00  0.00000000E+00  0.00000000E+00
  0.00000000E+00  0.00000000E+00  0.00000000E+00
  0.00000000E+00  0.00000000E+00  0.00000000E+00
  0.00000000E+00  0.00000000E+00  0.00000000E+00
  0.00000000E+00  0.00000000E+00  0.00000000E+00
  0.00000000E+00  0.00000000E+00  0.00000000E+00
  0.00000000E+00  0.00000000E+00  0.00000000E+00
  0.00000000E+00  0.00000000E+00  0.00000000E+00
