0.0                                     
   3.00000000000000     
     4.6580399999999997    0.0000000000000000    0.0000000000000000
     0.0000000000000000    4.2218656666126639    0.0000000000000000
     0.0000000000000000    0.0000000000000000    4.2208528607055955
   Mo   Nb   Ta   W 
    32    32    32    32
Selective dynamics
Direct
  0.0032523210809097  0.9990794087726254  0.9982163845747846   T   T   T
  0.9983041680941026  0.0014020690352042  0.7491571705709041   T   T   T
  0.9999490400436258  0.7517832540896735  0.0001693962841846   T   T   T
  0.0043510055960196  0.7520934652835498  0.2486070624184926   T   T   T
  0.9961364415006799  0.7534911144661944  0.7505896074529569   T   T   T
  0.1208877103271249  0.1242773155225594  0.6239594638127043   T   T   T
  0.1179724503512819  0.1236142562884464  0.8740509309628816   T   T   T
  0.1257504003843226  0.6279831646887801  0.1261754548460693   T   T   T
  0.1247506927481759  0.8739868004755096  0.1265038070050577   T   T   T
  0.2470726439475031  0.9987021504031636  0.2516925596719490   T   T   T
  0.2487084435210715  0.7514459116815437  0.2481690531211602   T   T   T
  0.2476462016980470  0.7529288997490799  0.4985273560285143   T   T   T
  0.3760368331702090  0.1243932538252543  0.6240061843430844   T   T   T
  0.3735680232105078  0.6254839256318523  0.1262022039447603   T   T   T
  0.3712233669711704  0.8752042024243334  0.3745870485541063   T   T   T
  0.5008349847304171  0.2478162383094520  0.5020378569428355   T   T   T
  0.4984291069504033  0.5017301925165797  0.2501983631252729   T   T   T
  0.5019668100516484  0.4991042455304387  0.4997272894949031   T   T   T
  0.6256661826578853  0.1252578097982135  0.6254742620427785   T   T   T
  0.6266083119557014  0.1264315160384747  0.8718963928458442   T   T   T
  0.6227048387708682  0.3740224382736628  0.6266308142483946   T   T   T
  0.6259389701779183  0.3763088426899912  0.8718213859047109   T   T   T
  0.6216750981987935  0.6261718233662746  0.1244375566514672   T   T   T
  0.6198238049187069  0.6259159672731271  0.3744125284231319   T   T   T
  0.7488394871169419  0.2487780766043066  0.7504317782669812   T   T   T
  0.7479811820369895  0.4993976115024120  0.7505872569386417   T   T   T
  0.7505601517396958  0.7518753645158259  0.5007612907476418   T   T   T
  0.8770131171087380  0.1242250607517700  0.6260078269208685   T   T   T
  0.8726532777237357  0.3733957766055422  0.8740012997379080   T   T   T
  0.8787356049615617  0.6269428108764047  0.1240575494632418   T   T   T
  0.8793183947605520  0.8764387164898828  0.3763206147567727   T   T   T
  0.8796620579407296  0.8759298304668643  0.8747645771915949   T   T   T
  0.9952761794251992  0.5036739702031523  0.9993688626426218   T   T   T
  0.1269224627441557  0.6276978510502956  0.3714685082627518   T   T   T
  0.1208877018302416  0.6259546415357465  0.6226514266328651   T   T   T
  0.1194080462984826  0.6279997419806868  0.8772122017234328   T   T   T
  0.2436453305314068  0.0006000386912190  0.0011046151421705   T   T   T
  0.2411711922544370  0.0004172539526298  0.7481842051057854   T   T   T
  0.2487971207314510  0.2467298960840846  0.7483292829396951   T   T   T
  0.2496310349562482  0.5024433149189915  0.0007603081741809   T   T   T
  0.3821348275101270  0.3723545318095084  0.6238353546746073   T   T   T
  0.3811511069334330  0.3749181551559628  0.8738044577121644   T   T   T
  0.3747126623026035  0.6256041909048267  0.3720964930440887   T   T   T
  0.3788096994202811  0.6251715921585851  0.6236294212578044   T   T   T
  0.3692895134373237  0.8727804135552744  0.1276095068118901   T   T   T
  0.5003856830909232  0.0002461234999330  0.5019835269087435   T   T   T
  0.5027815350173441  0.2491100017475616  0.9982728500879717   T   T   T
  0.4995923443279077  0.7484678141050691  0.0035012175746130   T   T   T
  0.5027347752179783  0.7500986531527193  0.4985839971583649   T   T   T
  0.6210090216813253  0.3772100061944692  0.1246766073572009   T   T   T
  0.6178114105389474  0.3757443957874743  0.3776062684399630   T   T   T
  0.7562417055323951 -0.0000525626922431  0.9978225080559410   T   T   T
  0.7543281608089600  0.0018843314675304  0.7480565626357600   T   T   T
  0.7516415609717558  0.2508602384169618  0.9963831129919904   T   T   T
  0.7458104024694749  0.2474437763031586  0.5030772036963285   T   T   T
  0.7510647722712581  0.5011162323852894  0.9994468234973105   T   T   T
  0.7459953473299112  0.5032714697801974  0.2490725276346632   T   T   T
  0.7427702503446433  0.5006191052665693  0.5000281274408037   T   T   T
  0.7526485540289903  0.7482947709836695  0.2491900519980275   T   T   T
  0.8813598589888353  0.1235257744866114  0.1239730828994048   T   T   T
  0.8719097282307413  0.3731343998367261  0.6252327896423160   T   T   T
  0.8773616446414013  0.6253860597122531  0.3740620019165327   T   T   T
  0.8715039649685828  0.6261414397813418  0.6240449125146779   T   T   T
  0.8848084129297124  0.8732471826730298  0.1243302427383400   T   T   T
  0.0056006660209138  0.2467342815379145  0.2503125254362114   T   T   T
  0.9921666042743501  0.4992802944323435  0.7520745083050802   T   T   T
  0.9990964147716800  0.7555588844291106  0.4986107342251600   T   T   T
  0.1245746453403863  0.3778411403949315  0.1259688744824851   T   T   T
  0.1242615200690803  0.3761137093787594  0.3765899290704825   T   T   T
  0.1205536029988377  0.3715122779222512  0.6231322659945803   T   T   T
  0.1196394912760326  0.3731832434924299  0.8741329530055693   T   T   T
  0.2474207918253865  0.2466230818650189  0.0002215339474939   T   T   T
  0.2503410234375774  0.2477509396994975  0.2496489608057237   T   T   T
  0.2539323555307614  0.4982552101020705  0.5001281032762395   T   T   T
  0.2497292599027501  0.5008169940771898  0.7478285006757156   T   T   T
  0.2438537715339449  0.7508859922287995  0.7505219290641355   T   T   T
  0.3716851162372757  0.1225382461491288  0.3776441404599294   T   T   T
  0.3772564881966387  0.1238433225470035  0.8712905544793470   T   T   T
  0.3759271900104194  0.3787399632225428  0.1255305386446102   T   T   T
  0.3779624634549382  0.6254302670266980  0.8766245517504514   T   T   T
  0.3713788202808995  0.8765802473712171  0.6237152165768659   T   T   T
  0.3732732523095525  0.8757620110676489  0.8738812309527463   T   T   T
  0.4988403770520445  0.0009397782969832  0.0003089898489262   T   T   T
  0.4968317170796936  0.2480999318798686  0.2525148209669695   T   T   T
  0.5055400476577208  0.7509936255866825  0.7461211457970239   T   T   T
  0.6246130169542005  0.1213294276349278  0.1262215598090783   T   T   T
  0.6272735010560739  0.6238685989639823  0.8751627018094266   T   T   T
  0.6248632243495198  0.8733973930407095  0.1273482911075487   T   T   T
  0.6258604959878490  0.8737375852655855  0.3753444502148016   T   T   T
  0.6284733901995523  0.8749759013246926  0.8764197733787141   T   T   T
  0.7550100740965708  0.9984148756897769  0.2537875549463599   T   T   T
  0.7469461544359907  0.2477902713763369  0.2522003759775726   T   T   T
  0.7526570106217710  0.7527712760980231  0.7493159339512775   T   T   T
  0.8803306023145869  0.1239779587228362  0.3791386156550131   T   T   T
  0.8788842362549201  0.3759270616378984  0.1263501015436577   T   T   T
  0.8790967338252914  0.3752670296898934  0.3765083394290435   T   T   T
  0.0068147028393094  0.9986462865257307  0.2518892121524487   T   T   T
  0.0027951920016511  0.9990160335719234  0.5015782127848097   T   T   T
  0.0002763067813289  0.2476230277200175  0.9978559085259366   T   T   T
  0.0012076835207479  0.2452706931954350  0.5024493566656446   T   T   T
  0.9959309929191885  0.2471191277161189  0.7507049176824557   T   T   T
  0.0012553941664250  0.5034270183789200  0.2482286403344674   T   T   T
  0.9985194677207151  0.5017232764327858  0.5004153265861671   T   T   T
  0.1232132620709358  0.1223648800841110  0.1256722648927531   T   T   T
  0.1268472597985392  0.1224402027777040  0.3773972949814375   T   T   T
  0.1275765867773617  0.8762108814288907  0.3741891324616962   T   T   T
  0.1220013833282253  0.8773034040516227  0.6230182716041084   T   T   T
  0.1178585894558599  0.8751551468550748  0.8754800421082127   T   T   T
  0.2458560272727831  0.0008670843048670  0.5004039104224247   T   T   T
  0.2502939798841844  0.2474511582564341  0.4997229081830116   T   T   T
  0.2526464705534147  0.5016753600311464  0.2501420119913189   T   T   T
  0.2442500679557139  0.7513388116500183  0.0011615949791394   T   T   T
  0.3736372674529574  0.1226840849518536  0.1271929231439179   T   T   T
  0.3748531666539738  0.3744459577140713  0.3758053152497304   T   T   T
  0.4963641776863119  0.9987128257858437  0.2519949383985944   T   T   T
  0.5055426387869439  0.0020268725990695  0.7478486159287261   T   T   T
  0.5075993434146847  0.2489995376801260  0.7480199800875998   T   T   T
  0.5029068950071215  0.5011414634278594  0.0005349433793130   T   T   T
  0.5070882185527268  0.4984837521050007  0.7491423997183835   T   T   T
  0.4978410355306442  0.7483665489770427  0.2510106161742205   T   T   T
  0.6218792522855924  0.1213134622084678  0.3776941573687389   T   T   T
  0.6264777852592989  0.6233938877753377  0.6252444268132963   T   T   T
  0.6292610455196618  0.8770365538986645  0.6230109259482326   T   T   T
  0.7512442170359330  0.0000872760802492  0.5019428973891072   T   T   T
  0.7556991927609178  0.7484409764648384  0.9995097904953063   T   T   T
  0.8802344485972623  0.1254744949129319  0.8731434865410133   T   T   T
  0.8729550811335721  0.6276738350273481  0.8749846741260009   T   T   T
  0.8775816717063134  0.8774389364214795  0.6244298106859288   T   T   T
 
  0.00000000E+00  0.00000000E+00  0.00000000E+00
  0.00000000E+00  0.00000000E+00  0.00000000E+00
  0.00000000E+00  0.00000000E+00  0.00000000E+00
  0.00000000E+00  0.00000000E+00  0.00000000E+00
  0.00000000E+00  0.00000000E+00  0.00000000E+00
  0.00000000E+00  0.00000000E+00  0.00000000E+00
  0.00000000E+00  0.00000000E+00  0.00000000E+00
  0.00000000E+00  0.00000000E+00  0.00000000E+00
  0.00000000E+00  0.00000000E+00  0.00000000E+00
  0.00000000E+00  0.00000000E+00  0.00000000E+00
  0.00000000E+00  0.00000000E+00  0.00000000E+00
  0.00000000E+00  0.00000000E+00  0.00000000E+00
  0.00000000E+00  0.00000000E+00  0.00000000E+00
  0.00000000E+00  0.00000000E+00  0.00000000E+00
  0.00000000E+00  0.00000000E+00  0.00000000E+00
  0.00000000E+00  0.00000000E+00  0.00000000E+00
  0.00000000E+00  0.00000000E+00  0.00000000E+00
  0.00000000E+00  0.00000000E+00  0.00000000E+00
  0.00000000E+00  0.00000000E+00  0.00000000E+00
  0.00000000E+00  0.00000000E+00  0.00000000E+00
  0.00000000E+00  0.00000000E+00  0.00000000E+00
  0.00000000E+00  0.00000000E+00  0.00000000E+00
  0.00000000E+00  0.00000000E+00  0.00000000E+00
  0.00000000E+00  0.00000000E+00  0.00000000E+00
  0.00000000E+00  0.00000000E+00  0.00000000E+00
  0.00000000E+00  0.00000000E+00  0.00000000E+00
  0.00000000E+00  0.00000000E+00  0.00000000E+00
  0.00000000E+00  0.00000000E+00  0.00000000E+00
  0.00000000E+00  0.00000000E+00  0.00000000E+00
  0.00000000E+00  0.00000000E+00  0.00000000E+00
  0.00000000E+00  0.00000000E+00  0.00000000E+00
  0.00000000E+00  0.00000000E+00  0.00000000E+00
  0.00000000E+00  0.00000000E+00  0.00000000E+00
  0.00000000E+00  0.00000000E+00  0.00000000E+00
  0.00000000E+00  0.00000000E+00  0.00000000E+00
  0.00000000E+00  0.00000000E+00  0.00000000E+00
  0.00000000E+00  0.00000000E+00  0.00000000E+00
  0.00000000E+00  0.00000000E+00  0.00000000E+00
  0.00000000E+00  0.00000000E+00  0.00000000E+00
  0.00000000E+00  0.00000000E+00  0.00000000E+00
  0.00000000E+00  0.00000000E+00  0.00000000E+00
  0.00000000E+00  0.00000000E+00  0.00000000E+00
  0.00000000E+00  0.00000000E+00  0.00000000E+00
  0.00000000E+00  0.00000000E+00  0.00000000E+00
  0.00000000E+00  0.00000000E+00  0.00000000E+00
  0.00000000E+00  0.00000000E+00  0.00000000E+00
  0.00000000E+00  0.00000000E+00  0.00000000E+00
  0.00000000E+00  0.00000000E+00  0.00000000E+00
  0.00000000E+00  0.00000000E+00  0.00000000E+00
  0.00000000E+00  0.00000000E+00  0.00000000E+00
  0.00000000E+00  0.00000000E+00  0.00000000E+00
  0.00000000E+00  0.00000000E+00  0.00000000E+00
  0.00000000E+00  0.00000000E+00  0.00000000E+00
  0.00000000E+00  0.00000000E+00  0.00000000E+00
  0.00000000E+00  0.00000000E+00  0.00000000E+00
  0.00000000E+00  0.00000000E+00  0.00000000E+00
  0.00000000E+00  0.00000000E+00  0.00000000E+00
  0.00000000E+00  0.00000000E+00  0.00000000E+00
  0.00000000E+00  0.00000000E+00  0.00000000E+00
  0.00000000E+00  0.00000000E+00  0.00000000E+00
  0.00000000E+00  0.00000000E+00  0.00000000E+00
  0.00000000E+00  0.00000000E+00  0.00000000E+00
  0.00000000E+00  0.00000000E+00  0.00000000E+00
  0.00000000E+00  0.00000000E+00  0.00000000E+00
  0.00000000E+00  0.00000000E+00  0.00000000E+00
  0.00000000E+00  0.00000000E+00  0.00000000E+00
  0.00000000E+00  0.00000000E+00  0.00000000E+00
  0.00000000E+00  0.00000000E+00  0.00000000E+00
  0.00000000E+00  0.00000000E+00  0.00000000E+00
  0.00000000E+00  0.00000000E+00  0.00000000E+00
  0.00000000E+00  0.00000000E+00  0.00000000E+00
  0.00000000E+00  0.00000000E+00  0.00000000E+00
  0.00000000E+00  0.00000000E+00  0.00000000E+00
  0.00000000E+00  0.00000000E+00  0.00000000E+00
  0.00000000E+00  0.00000000E+00  0.00000000E+00
  0.00000000E+00  0.00000000E+00  0.00000000E+00
  0.00000000E+00  0.00000000E+00  0.00000000E+00
  0.00000000E+00  0.00000000E+00  0.00000000E+00
  0.00000000E+00  0.00000000E+00  0.00000000E+00
  0.00000000E+00  0.00000000E+00  0.00000000E+00
  0.00000000E+00  0.00000000E+00  0.00000000E+00
  0.00000000E+00  0.00000000E+00  0.00000000E+00
  0.00000000E+00  0.00000000E+00  0.00000000E+00
  0.00000000E+00  0.00000000E+00  0.00000000E+00
  0.00000000E+00  0.00000000E+00  0.00000000E+00
  0.00000000E+00  0.00000000E+00  0.00000000E+00
  0.00000000E+00  0.00000000E+00  0.00000000E+00
  0.00000000E+00  0.00000000E+00  0.00000000E+00
  0.00000000E+00  0.00000000E+00  0.00000000E+00
  0.00000000E+00  0.00000000E+00  0.00000000E+00
  0.00000000E+00  0.00000000E+00  0.00000000E+00
  0.00000000E+00  0.00000000E+00  0.00000000E+00
  0.00000000E+00  0.00000000E+00  0.00000000E+00
  0.00000000E+00  0.00000000E+00  0.00000000E+00
  0.00000000E+00  0.00000000E+00  0.00000000E+00
  0.00000000E+00  0.00000000E+00  0.00000000E+00
  0.00000000E+00  0.00000000E+00  0.00000000E+00
  0.00000000E+00  0.00000000E+00  0.00000000E+00
  0.00000000E+00  0.00000000E+00  0.00000000E+00
  0.00000000E+00  0.00000000E+00  0.00000000E+00
  0.00000000E+00  0.00000000E+00  0.00000000E+00
  0.00000000E+00  0.00000000E+00  0.00000000E+00
  0.00000000E+00  0.00000000E+00  0.00000000E+00
  0.00000000E+00  0.00000000E+00  0.00000000E+00
  0.00000000E+00  0.00000000E+00  0.00000000E+00
  0.00000000E+00  0.00000000E+00  0.00000000E+00
  0.00000000E+00  0.00000000E+00  0.00000000E+00
  0.00000000E+00  0.00000000E+00  0.00000000E+00
  0.00000000E+00  0.00000000E+00  0.00000000E+00
  0.00000000E+00  0.00000000E+00  0.00000000E+00
  0.00000000E+00  0.00000000E+00  0.00000000E+00
  0.00000000E+00  0.00000000E+00  0.00000000E+00
  0.00000000E+00  0.00000000E+00  0.00000000E+00
  0.00000000E+00  0.00000000E+00  0.00000000E+00
  0.00000000E+00  0.00000000E+00  0.00000000E+00
  0.00000000E+00  0.00000000E+00  0.00000000E+00
  0.00000000E+00  0.00000000E+00  0.00000000E+00
  0.00000000E+00  0.00000000E+00  0.00000000E+00
  0.00000000E+00  0.00000000E+00  0.00000000E+00
  0.00000000E+00  0.00000000E+00  0.00000000E+00
  0.00000000E+00  0.00000000E+00  0.00000000E+00
  0.00000000E+00  0.00000000E+00  0.00000000E+00
  0.00000000E+00  0.00000000E+00  0.00000000E+00
  0.00000000E+00  0.00000000E+00  0.00000000E+00
  0.00000000E+00  0.00000000E+00  0.00000000E+00
  0.00000000E+00  0.00000000E+00  0.00000000E+00
  0.00000000E+00  0.00000000E+00  0.00000000E+00
  0.00000000E+00  0.00000000E+00  0.00000000E+00
