0.0                                     
   3.00000000000000     
     4.8305599999999993    0.0000000000000000    0.0000000000000000
     0.0000000000000000    4.1769839682742473    0.0000000000000000
     0.0000000000000000    0.0000000000000000    4.1742111720316473
   Mo   Nb   Ta   W 
    32    32    32    32
Selective dynamics
Direct
  0.0042145135868172  0.9994836056785772  0.9988357786447822   T   T   T
  0.9970681415864162  0.0010998601305531  0.7491879138827319   T   T   T
  0.0009270632309504  0.7515472475743663 -0.0004600970063479   T   T   T
  0.0072415415028482  0.7519446531930941  0.2484220327181519   T   T   T
  0.9943516842002966  0.7529794974718761  0.7498304716396790   T   T   T
  0.1173367047045275  0.1248491093470173  0.6240412495281595   T   T   T
  0.1139911012908048  0.1246404450541663  0.8741513249095461   T   T   T
  0.1269472574824990  0.6276025439704543  0.1257853048450352   T   T   T
  0.1249100447890212  0.8741597813454802  0.1260250740223946   T   T   T
  0.2452682357050280  0.9988364533421261  0.2513358646713225   T   T   T
  0.2475660844267983  0.7507734874263361  0.2480383874924758   T   T   T
  0.2464962324542233  0.7523786207944407  0.4992926445309835   T   T   T
  0.3788653240470612  0.1239379284519990  0.6245254176484638   T   T   T
  0.3729788451275003  0.6250162082011776  0.1249980575270435   T   T   T
  0.3679860190843337  0.8746817128711937  0.3757929601489192   T   T   T
  0.5015975274061443  0.2471592477545882  0.5014243727135936   T   T   T
  0.4958765449513782  0.5006158815208022  0.2496763183334621   T   T   T
  0.5021719005536229  0.4995696339691834  0.4995411459811470   T   T   T
  0.6270178750067297  0.1254436898009575  0.6256146272270370   T   T   T
  0.6285244178143915  0.1267894132980787  0.8734789878389175   T   T   T
  0.6228749746483240  0.3751073382537352  0.6263347529912446   T   T   T
  0.6274472041484551  0.3772763450491528  0.8725594073693620   T   T   T
  0.6176115538874082  0.6266209716808040  0.1243020266043864   T   T   T
  0.6162671611227423  0.6258677790813429  0.3740684185535308   T   T   T
  0.7494232423764089  0.2493430735715656  0.7512043254245557   T   T   T
  0.7481256876413357  0.5000510475301715  0.7503870613264093   T   T   T
  0.7505343483786691  0.7515561727934601  0.5000000766261454   T   T   T
  0.8777177947990548  0.1245176323648045  0.6257975304767469   T   T   T
  0.8713116658590321  0.3736413102367824  0.8742897712255331   T   T   T
  0.8822288900317382  0.6268027894306232  0.1239611815505183   T   T   T
  0.8809086869854549  0.8762562194931723  0.3762186004393649   T   T   T
  0.8810007078281251  0.8760521102360728  0.8751748656403925   T   T   T
  0.9944381338147169  0.5033632090695862  0.9993311153457275   T   T   T
  0.1282960621481201  0.6269898816885598  0.3721652152996038   T   T   T
  0.1191703956728526  0.6248012188636717  0.6230051738143103   T   T   T
  0.1169286945903809  0.6270260460359589  0.8766170373260339   T   T   T
  0.2413615866121513  0.0012397348780718 -0.0004425958193898   T   T   T
  0.2352049163851221  0.0015337157800364  0.7484486207352933   T   T   T
  0.2480800679636071  0.2475296704943641  0.7475335012392201   T   T   T
  0.2502304457085320  0.5018444184756229 -0.0011061412653302   T   T   T
  0.3867368392585960  0.3719291567563606  0.6242816081952487   T   T   T
  0.3849960370001214  0.3746690703768809  0.8723177602459053   T   T   T
  0.3741608958209486  0.6253147255910689  0.3723294804461783   T   T   T
  0.3809330604765515  0.6262989282216266  0.6244242487362528   T   T   T
  0.3660358142025307  0.8722495438915578  0.1267003960145906   T   T   T
  0.5007085860518935 -0.0005366771040557  0.5026007814748146   T   T   T
  0.5039470566205136  0.2480565198518929  0.9982566315506762   T   T   T
  0.4987459539415208  0.7495706335294678  0.0024897427685003   T   T   T
  0.5027840737402328  0.7509690427486067  0.4992965961764717   T   T   T
  0.6183076889956870  0.3764808839521473  0.1248147926542972   T   T   T
  0.6130348113339430  0.3743374302399274  0.3769673182038845   T   T   T
  0.7588417297593397 -0.0004576811213193  0.0000320584729023   T   T   T
  0.7568347938608218  0.0028071153431521  0.7488750081436484   T   T   T
  0.7514980121425210  0.2507426169730467  0.9985971276953152   T   T   T
  0.7441557264888651  0.2471199087386017  0.5018362330124491   T   T   T
  0.7518707004478296  0.5022051789471560  0.0014236179522115   T   T   T
  0.7424116321117872  0.5015928638237256  0.2491732789627487   T   T   T
  0.7403222942161600  0.5007620136023084  0.4979344791758015   T   T   T
  0.7543229964874650  0.7469510119723778  0.2484894611232146   T   T   T
  0.8836250295338053  0.1239430056132903  0.1253440565967145   T   T   T
  0.8699985408035791  0.3731355567461526  0.6239943253762287   T   T   T
  0.8787908505461142  0.6241711786408354  0.3729651407747926   T   T   T
  0.8704246565371107  0.6264500656092996  0.6225798853371192   T   T   T
  0.8883457442069268  0.8731910265721866  0.1253872910513604   T   T   T
  0.0084491549673838  0.2475893873112169  0.2504654274085983   T   T   T
  0.9883305760010003  0.4990995069440798  0.7513431336804152   T   T   T
  0.9995538518659810  0.7550182728645767  0.4983166485167395   T   T   T
  0.1251853693125236  0.3783872848750255  0.1248389690951450   T   T   T
  0.1253561381903702  0.3763389806437070  0.3771661905191570   T   T   T
  0.1182990972035304  0.3723622445138805  0.6240045118962728   T   T   T
  0.1178751931930828  0.3738232848763617  0.8730983032472306   T   T   T
  0.2479322193374412  0.2469634350994641 -0.0016121064565967   T   T   T
  0.2498801079672357  0.2477696346506403  0.2487469973116819   T   T   T
  0.2553478244862180  0.4974683444776512  0.5017278779624649   T   T   T
  0.2513076794679981  0.5002882099092172  0.7478611738325018   T   T   T
  0.2410715664409891  0.7503913632911692  0.7509187532835895   T   T   T
  0.3691924201238433  0.1215429281428338  0.3784036458765521   T   T   T
  0.3793171919799822  0.1229130844485143  0.8693517517590920   T   T   T
  0.3766286385137681  0.3777726840603077  0.1241733179024916   T   T   T
  0.3803492818050856  0.6265427230338507  0.8751940801096481   T   T   T
  0.3686638573667358  0.8778498970337014  0.6253557232538892   T   T   T
  0.3721329367176676  0.8768135198140981  0.8721805268372045   T   T   T
  0.4980762513136210  0.0002414243820918  0.0010111199403333   T   T   T
  0.4932518695880818  0.2459393301748494  0.2523276706235203   T   T   T
  0.5091418021047868  0.7539355732124438  0.7458566401764921   T   T   T
  0.6236586987510412  0.1192330479410231  0.1278700393781376   T   T   T
  0.6294623352382557  0.6253443798641338  0.8758563049267430   T   T   T
  0.6245606070151990  0.8730440537526863  0.1285061758338014   T   T   T
  0.6265731234580034  0.8734684099379767  0.3744904289371018   T   T   T
  0.6317629688954032  0.8755676904922574  0.8785689225620732   T   T   T
  0.7572497831161670  0.9986975609702400  0.2546039719571051   T   T   T
  0.7458546629066943  0.2471750296970381  0.2528231781850110   T   T   T
  0.7542869609509535  0.7533920961615573  0.7496060939353104   T   T   T
  0.8825083503611101  0.1245564113458925  0.3793203796444167   T   T   T
  0.8790921958349198  0.3760457665577548  0.1281936795796283   T   T   T
  0.8798312982532837  0.3748533513769843  0.3757567574627917   T   T   T
  0.0093135528895734  0.9990643871519232  0.2523921876642774   T   T   T
  0.0037878771840376  0.9987937732458078  0.5013024314725871   T   T   T
 -0.0001962761759132  0.2484767867512603  0.9985238032506111   T   T   T
  0.0011952139877248  0.2458148600502919  0.5021758152012193   T   T   T
  0.9936937925509612  0.2478677729427287  0.7507680211946214   T   T   T
  0.0033794635127049  0.5030501758966592  0.2483066526225692   T   T   T
  0.9981179109164641  0.5018093333427496  0.5000749945974816   T   T   T
  0.1227346299834593  0.1232999182073349  0.1252097443621574   T   T   T
  0.1274749438069230  0.1233031942959695  0.3777153495982516   T   T   T
  0.1282708923193897  0.8761723092011764  0.3746961945970750   T   T   T
  0.1200248552043207  0.8767695063389864  0.6232660821890950   T   T   T
  0.1148707556143349  0.8748801716189805  0.8753467072782113   T   T   T
  0.2432097452384347  0.0013256637711384  0.5012918137657499   T   T   T
  0.2500541785973903  0.2477752780350536  0.5005021661797749   T   T   T
  0.2537116544934057  0.5009905103120236  0.2501246305504328   T   T   T
  0.2432188963373135  0.7511674596847969 -0.0002688937364817   T   T   T
  0.3726741608395374  0.1221258723382511  0.1261990782309659   T   T   T
  0.3746397653949260  0.3732642069504358  0.3754855910096677   T   T   T
  0.4923667756079065  0.9971428423916733  0.2522943727143261   T   T   T
  0.5110238722780227  0.0015194398694974  0.7486341888588774   T   T   T
  0.5123137875885050  0.2487899777466611  0.7482514183470748   T   T   T
  0.5039555107780253  0.5013972460790291 -0.0000976276956978   T   T   T
  0.5108431582621419  0.5001670184989127  0.7492136347709576   T   T   T
  0.4952941356013735  0.7487498464631002  0.2511190250978719   T   T   T
  0.6194898831792879  0.1205334602354178  0.3776333152689474   T   T   T
  0.6279247210943555  0.6248109858046703  0.6251696155989364   T   T   T
  0.6333838773084327  0.8777033455527803  0.6229203968695221   T   T   T
  0.7516201681655327 -0.0000573552470153  0.5014737783706494   T   T   T
  0.7578188603143952  0.7487324902853272  0.0003089580201615   T   T   T
  0.8810877431372041  0.1259263082755657  0.8741981130515070   T   T   T
  0.8722164690725065  0.6278012506039867  0.8750215018440524   T   T   T
  0.8779682080505053  0.8775202257272949  0.6239215473335123   T   T   T
 
  0.00000000E+00  0.00000000E+00  0.00000000E+00
  0.00000000E+00  0.00000000E+00  0.00000000E+00
  0.00000000E+00  0.00000000E+00  0.00000000E+00
  0.00000000E+00  0.00000000E+00  0.00000000E+00
  0.00000000E+00  0.00000000E+00  0.00000000E+00
  0.00000000E+00  0.00000000E+00  0.00000000E+00
  0.00000000E+00  0.00000000E+00  0.00000000E+00
  0.00000000E+00  0.00000000E+00  0.00000000E+00
  0.00000000E+00  0.00000000E+00  0.00000000E+00
  0.00000000E+00  0.00000000E+00  0.00000000E+00
  0.00000000E+00  0.00000000E+00  0.00000000E+00
  0.00000000E+00  0.00000000E+00  0.00000000E+00
  0.00000000E+00  0.00000000E+00  0.00000000E+00
  0.00000000E+00  0.00000000E+00  0.00000000E+00
  0.00000000E+00  0.00000000E+00  0.00000000E+00
  0.00000000E+00  0.00000000E+00  0.00000000E+00
  0.00000000E+00  0.00000000E+00  0.00000000E+00
  0.00000000E+00  0.00000000E+00  0.00000000E+00
  0.00000000E+00  0.00000000E+00  0.00000000E+00
  0.00000000E+00  0.00000000E+00  0.00000000E+00
  0.00000000E+00  0.00000000E+00  0.00000000E+00
  0.00000000E+00  0.00000000E+00  0.00000000E+00
  0.00000000E+00  0.00000000E+00  0.00000000E+00
  0.00000000E+00  0.00000000E+00  0.00000000E+00
  0.00000000E+00  0.00000000E+00  0.00000000E+00
  0.00000000E+00  0.00000000E+00  0.00000000E+00
  0.00000000E+00  0.00000000E+00  0.00000000E+00
  0.00000000E+00  0.00000000E+00  0.00000000E+00
  0.00000000E+00  0.00000000E+00  0.00000000E+00
  0.00000000E+00  0.00000000E+00  0.00000000E+00
  0.00000000E+00  0.00000000E+00  0.00000000E+00
  0.00000000E+00  0.00000000E+00  0.00000000E+00
  0.00000000E+00  0.00000000E+00  0.00000000E+00
  0.00000000E+00  0.00000000E+00  0.00000000E+00
  0.00000000E+00  0.00000000E+00  0.00000000E+00
  0.00000000E+00  0.00000000E+00  0.00000000E+00
  0.00000000E+00  0.00000000E+00  0.00000000E+00
  0.00000000E+00  0.00000000E+00  0.00000000E+00
  0.00000000E+00  0.00000000E+00  0.00000000E+00
  0.00000000E+00  0.00000000E+00  0.00000000E+00
  0.00000000E+00  0.00000000E+00  0.00000000E+00
  0.00000000E+00  0.00000000E+00  0.00000000E+00
  0.00000000E+00  0.00000000E+00  0.00000000E+00
  0.00000000E+00  0.00000000E+00  0.00000000E+00
  0.00000000E+00  0.00000000E+00  0.00000000E+00
  0.00000000E+00  0.00000000E+00  0.00000000E+00
  0.00000000E+00  0.00000000E+00  0.00000000E+00
  0.00000000E+00  0.00000000E+00  0.00000000E+00
  0.00000000E+00  0.00000000E+00  0.00000000E+00
  0.00000000E+00  0.00000000E+00  0.00000000E+00
  0.00000000E+00  0.00000000E+00  0.00000000E+00
  0.00000000E+00  0.00000000E+00  0.00000000E+00
  0.00000000E+00  0.00000000E+00  0.00000000E+00
  0.00000000E+00  0.00000000E+00  0.00000000E+00
  0.00000000E+00  0.00000000E+00  0.00000000E+00
  0.00000000E+00  0.00000000E+00  0.00000000E+00
  0.00000000E+00  0.00000000E+00  0.00000000E+00
  0.00000000E+00  0.00000000E+00  0.00000000E+00
  0.00000000E+00  0.00000000E+00  0.00000000E+00
  0.00000000E+00  0.00000000E+00  0.00000000E+00
  0.00000000E+00  0.00000000E+00  0.00000000E+00
  0.00000000E+00  0.00000000E+00  0.00000000E+00
  0.00000000E+00  0.00000000E+00  0.00000000E+00
  0.00000000E+00  0.00000000E+00  0.00000000E+00
  0.00000000E+00  0.00000000E+00  0.00000000E+00
  0.00000000E+00  0.00000000E+00  0.00000000E+00
  0.00000000E+00  0.00000000E+00  0.00000000E+00
  0.00000000E+00  0.00000000E+00  0.00000000E+00
  0.00000000E+00  0.00000000E+00  0.00000000E+00
  0.00000000E+00  0.00000000E+00  0.00000000E+00
  0.00000000E+00  0.00000000E+00  0.00000000E+00
  0.00000000E+00  0.00000000E+00  0.00000000E+00
  0.00000000E+00  0.00000000E+00  0.00000000E+00
  0.00000000E+00  0.00000000E+00  0.00000000E+00
  0.00000000E+00  0.00000000E+00  0.00000000E+00
  0.00000000E+00  0.00000000E+00  0.00000000E+00
  0.00000000E+00  0.00000000E+00  0.00000000E+00
  0.00000000E+00  0.00000000E+00  0.00000000E+00
  0.00000000E+00  0.00000000E+00  0.00000000E+00
  0.00000000E+00  0.00000000E+00  0.00000000E+00
  0.00000000E+00  0.00000000E+00  0.00000000E+00
  0.00000000E+00  0.00000000E+00  0.00000000E+00
  0.00000000E+00  0.00000000E+00  0.00000000E+00
  0.00000000E+00  0.00000000E+00  0.00000000E+00
  0.00000000E+00  0.00000000E+00  0.00000000E+00
  0.00000000E+00  0.00000000E+00  0.00000000E+00
  0.00000000E+00  0.00000000E+00  0.00000000E+00
  0.00000000E+00  0.00000000E+00  0.00000000E+00
  0.00000000E+00  0.00000000E+00  0.00000000E+00
  0.00000000E+00  0.00000000E+00  0.00000000E+00
  0.00000000E+00  0.00000000E+00  0.00000000E+00
  0.00000000E+00  0.00000000E+00  0.00000000E+00
  0.00000000E+00  0.00000000E+00  0.00000000E+00
  0.00000000E+00  0.00000000E+00  0.00000000E+00
  0.00000000E+00  0.00000000E+00  0.00000000E+00
  0.00000000E+00  0.00000000E+00  0.00000000E+00
  0.00000000E+00  0.00000000E+00  0.00000000E+00
  0.00000000E+00  0.00000000E+00  0.00000000E+00
  0.00000000E+00  0.00000000E+00  0.00000000E+00
  0.00000000E+00  0.00000000E+00  0.00000000E+00
  0.00000000E+00  0.00000000E+00  0.00000000E+00
  0.00000000E+00  0.00000000E+00  0.00000000E+00
  0.00000000E+00  0.00000000E+00  0.00000000E+00
  0.00000000E+00  0.00000000E+00  0.00000000E+00
  0.00000000E+00  0.00000000E+00  0.00000000E+00
  0.00000000E+00  0.00000000E+00  0.00000000E+00
  0.00000000E+00  0.00000000E+00  0.00000000E+00
  0.00000000E+00  0.00000000E+00  0.00000000E+00
  0.00000000E+00  0.00000000E+00  0.00000000E+00
  0.00000000E+00  0.00000000E+00  0.00000000E+00
  0.00000000E+00  0.00000000E+00  0.00000000E+00
  0.00000000E+00  0.00000000E+00  0.00000000E+00
  0.00000000E+00  0.00000000E+00  0.00000000E+00
  0.00000000E+00  0.00000000E+00  0.00000000E+00
  0.00000000E+00  0.00000000E+00  0.00000000E+00
  0.00000000E+00  0.00000000E+00  0.00000000E+00
  0.00000000E+00  0.00000000E+00  0.00000000E+00
  0.00000000E+00  0.00000000E+00  0.00000000E+00
  0.00000000E+00  0.00000000E+00  0.00000000E+00
  0.00000000E+00  0.00000000E+00  0.00000000E+00
  0.00000000E+00  0.00000000E+00  0.00000000E+00
  0.00000000E+00  0.00000000E+00  0.00000000E+00
  0.00000000E+00  0.00000000E+00  0.00000000E+00
  0.00000000E+00  0.00000000E+00  0.00000000E+00
  0.00000000E+00  0.00000000E+00  0.00000000E+00
  0.00000000E+00  0.00000000E+00  0.00000000E+00
  0.00000000E+00  0.00000000E+00  0.00000000E+00
  0.00000000E+00  0.00000000E+00  0.00000000E+00
