0.0                                     
   3.00000000000000     
     4.5286499999999998    0.0000000000000000    0.0000000000000000
     0.0000000000000000    4.2547454243380871    0.0000000000000000
     0.0000000000000000    0.0000000000000000    4.2527714001910670
   Mo   Nb   Ta   W 
    32    32    32    32
Selective dynamics
Direct
  0.0026364818947496  0.9990625257431031  0.9980565485644531   T   T   T
  0.9985981695190896  0.0014481881969427  0.7493389146038649   T   T   T
  0.0000168868676136  0.7519990543414499  0.0000369625792813   T   T   T
  0.0035390652488996  0.7519103587282094  0.2484336909338276   T   T   T
  0.9970307077644189  0.7536916036066267  0.7506618582234954   T   T   T
  0.1220580806021317  0.1240328576591057  0.6239229930567809   T   T   T
  0.1195724586516425  0.1233214347120204  0.8741368000720476   T   T   T
  0.1255681623374679  0.6279884564488746  0.1263911087018529   T   T   T
  0.1248841081615896  0.8739053711561486  0.1266456928428795   T   T   T
  0.2479240901530777  0.9985198013098506  0.2516103338803383   T   T   T
  0.2492562746706045  0.7515019045654182  0.2483176544388710   T   T   T
  0.2481623221479108  0.7531286591817974  0.4982185220847301   T   T   T
  0.3755970054680680  0.1246875153584436  0.6237029378187054   T   T   T
  0.3735947956976084  0.6254873909645257  0.1262403962345239   T   T   T
  0.3720854302891226  0.8751691126896161  0.3743740641502733   T   T   T
  0.5004044517183084  0.2483551884431422  0.5020058428401983   T   T   T
  0.4988814802043792  0.5018025752841213  0.2503536814408563   T   T   T
  0.5014727405803533  0.4989714755129017  0.4997486848041880   T   T   T
  0.6255598003491911  0.1256759047692322  0.6256961170913955   T   T   T
  0.6268201482082235  0.1264814530957447  0.8717347744139023   T   T   T
  0.6231065141805130  0.3741007177446544  0.6267871595490495   T   T   T
  0.6256465549900920  0.3762359801887269  0.8717411157052183   T   T   T
  0.6227676047405490  0.6260220531806224  0.1245573314950421   T   T   T
  0.6214153698177778  0.6257839255701818  0.3746392496523826   T   T   T
  0.7489897281148168  0.2489743206632981  0.7505473653396907   T   T   T
  0.7481916964154306  0.4992380948448780  0.7508133961531660   T   T   T
  0.7506221489946122  0.7518929126622037  0.5007346051775903   T   T   T
  0.8765929126775406  0.1241700623900030  0.6262209968414130   T   T   T
  0.8729086877321885  0.3733573536440971  0.8738987387928601   T   T   T
  0.8778108460753979  0.6269956473583416  0.1242070800041099   T   T   T
  0.8783942958616560  0.8760876200351461  0.3761694721732839   T   T   T
  0.8788805617576103  0.8759641584465858  0.8746196686873776   T   T   T
  0.9960701259229717  0.5036711789490445  0.9995481643251134   T   T   T
  0.1263724826531379  0.6277042788527266  0.3714481392030094   T   T   T
  0.1218285609371892  0.6266143947168290  0.6225993812895736   T   T   T
  0.1206393660348797  0.6286263941628975  0.8772889451893069   T   T   T
  0.2449235240142416  0.0003355882745032  0.0016548984805527   T   T   T
  0.2433310701189827  0.0003298907470494  0.7481925175461938   T   T   T
  0.2489121875768103  0.2464298135576164  0.7484234441131389   T   T   T
  0.2493331978252327  0.5026452382214681  0.0012664847695359   T   T   T
  0.3800355995584881  0.3725971179878935  0.6235747607534962   T   T   T
  0.3791744182417935  0.3750689430290258  0.8740572676562904   T   T   T
  0.3748701890133254  0.6254823844580858  0.3718396513297045   T   T   T
  0.3777952468375774  0.6249549574380830  0.6229043208672927   T   T   T
  0.3707013056054567  0.8728587954753173  0.1280263470699517   T   T   T
  0.5003849049343208  0.0003794351704482  0.5020677025959500   T   T   T
  0.5020580858418514  0.2491285411804382  0.9983706340431344   T   T   T
  0.4997106314644026  0.7484379007656075  0.0033294966474600   T   T   T
  0.5025047993199964  0.7497393889674413  0.4985456720955968   T   T   T
  0.6220958782659128  0.3772702302146560  0.1249469098099866   T   T   T
  0.6196634484193011  0.3760515390679659  0.3778997802710722   T   T   T
  0.7549501242718678 -0.0000312552730420  0.9972791672203780   T   T   T
  0.7532170730574312  0.0016488045821096  0.7478711960441545   T   T   T
  0.7517355437110871  0.2508792377527457  0.9957968306911446   T   T   T
  0.7468718698472895  0.2475833681145994  0.5036726207520293   T   T   T
  0.7507005898238610  0.5011165301169771  0.9992992643264261   T   T   T
  0.7471226919449733  0.5034349048009976  0.2494955813077130   T   T   T
  0.7443533696450439  0.5006739216762798  0.5007073176501264   T   T   T
  0.7525599828430170  0.7481061291538563  0.2493428732248787   T   T   T
  0.8800756908385745  0.1230789429781132  0.1234784545390690   T   T   T
  0.8724992413689656  0.3734116266547242  0.6255723300674871   T   T   T
  0.8765322421569961  0.6255839672810819  0.3742807408386828   T   T   T
  0.8720427396693647  0.6262234963376117  0.6244541438664998   T   T   T
  0.8826160924818440  0.8731013707664368  0.1238002448145999   T   T   T
  0.0040155103165076  0.2465476444569969  0.2501480008022641   T   T   T
  0.9937355687493336  0.4994353114605964  0.7520314308280737   T   T   T
  0.9991805416128519  0.7555055423641952  0.4985284167405052   T   T   T
  0.1244593719662168  0.3773650416266730  0.1260436208423207   T   T   T
  0.1240802430123920  0.3759811393126396  0.3762608017788411   T   T   T
  0.1215368075411433  0.3713884014807265  0.6229897827802071   T   T   T
  0.1208492862904527  0.3729992661784335  0.8744261675944227   T   T   T
  0.2477128083319818  0.2462883275177377  0.0006907043552486   T   T   T
  0.2502977306340921  0.2474845116576269  0.2497763846017413   T   T   T
  0.2528775457579831  0.4986645195491540  0.4994909615836755   T   T   T
  0.2495948254338651  0.5011498795329365  0.7478827377205177   T   T   T
  0.2453054744858037  0.7513735296449187  0.7501487917634182   T   T   T
  0.3726331084188824  0.1226575243604285  0.3774108484868187   T   T   T
  0.3766100412181759  0.1241209051043371  0.8714444413526139   T   T   T
  0.3754339498936661  0.3789164636172594  0.1258351235182378   T   T   T
  0.3769460877115308  0.6251639687079966  0.8765781748537678   T   T   T
  0.3721031686974134  0.8767269376504550  0.6232929156929161   T   T   T
  0.3733349335483253  0.8757408575216213  0.8743676955775245   T   T   T
  0.4993087406916102  0.0012405686653169  0.0000745235682543   T   T   T
  0.4978851730108007  0.2485715850671524  0.2525683169424098   T   T   T
  0.5040346559588430  0.7505411433778508  0.7461573547615830   T   T   T
  0.6249152781852584  0.1217748166924557  0.1261623630248755   T   T   T
  0.6266030991141772  0.6233957645538585  0.8748085211709444   T   T   T
  0.6253958531689086  0.8734575161773084  0.1272693580863330   T   T   T
  0.6261312258469025  0.8735829664907547  0.3757244239439752   T   T   T
  0.6275858738808038  0.8748847429940866  0.8757928946258637   T   T   T
  0.7542979341175600  0.9982684805670576  0.2538841154067515   T   T   T
  0.7478013066840309  0.2478021903907356  0.2520982911195534   T   T   T
  0.7523848292794771  0.7526554906066326  0.7491370469939775   T   T   T
  0.8792476549505936  0.1236256725355570  0.3790487533619810   T   T   T
  0.8781362309732502  0.3759513525305043  0.1259276008667798   T   T   T
  0.8784516513005115  0.3752675259190538  0.3766708611420790   T   T   T
  0.0054695821430655  0.9983310363234607  0.2515983064877239   T   T   T
  0.0020403492857809  0.9990034680390377  0.5015629602135043   T   T   T
  0.0001811408852366  0.2475390967927095  0.9974769079708532   T   T   T
  0.0009226666963185  0.2452577448354112  0.5024408470264214   T   T   T
  0.9965619595368963  0.2469701364724990  0.7505820234635673   T   T   T
  0.0007571101509696  0.5032990404971719  0.2480721510716870   T   T   T
  0.9986043725502033  0.5016469398511342  0.5004245955918342   T   T   T
  0.1235388890194753  0.1219492167658595  0.1257152445268195   T   T   T
  0.1263419506416772  0.1223044813504772  0.3772409802502090   T   T   T
  0.1270820841191852  0.8763258681146363  0.3741725059097115   T   T   T
  0.1226655112443440  0.8775995151879284  0.6233238229040154   T   T   T
  0.1195534325931735  0.8752636008955972  0.8758147682537327   T   T   T
  0.2466759725384837  0.0007342067836501  0.5000457399482015   T   T   T
  0.2501168667005497  0.2474539046104071  0.4995011893831827   T   T   T
  0.2517078808067080  0.5017867200591288  0.2501689862729636   T   T   T
  0.2453843832584489  0.7515800832783525  0.0015823567695144   T   T   T
  0.3741640340349420  0.1225355202764694  0.1275453459506267   T   T   T
  0.3744894994869998  0.3747075130386590  0.3756444564494750   T   T   T
  0.4976098187656022  0.9989027597109035  0.2519337045376386   T   T   T
  0.5039706615179637  0.0022891047622699  0.7480629759581783   T   T   T
  0.5056388586241172  0.2492522411686816  0.7480597844711189   T   T   T
  0.5020739554934062  0.5008689973617459  0.0007153373897289   T   T   T
  0.5049852559375276  0.4980398198794717  0.7488984128654865   T   T   T
  0.4986046408992048  0.7480440324087795  0.2509780210978157   T   T   T
  0.6231035416255062  0.1216400385107809  0.3778860557241134   T   T   T
  0.6260283063795586  0.6230708019481106  0.6252492131135786   T   T   T
  0.6282230532896940  0.8768833667191550  0.6231423902803350   T   T   T
  0.7514082123541105  0.0001186437136913  0.5022284418715698   T   T   T
  0.7548147283347305  0.7485402540117730  0.9991718731464380   T   T   T
  0.8790716748491408  0.1253229411692038  0.8729093802085828   T   T   T
  0.8734342498021453  0.6277245490709559  0.8750599356438920   T   T   T
  0.8772169895126968  0.8773840334032443  0.6245208176117981   T   T   T
 
  0.00000000E+00  0.00000000E+00  0.00000000E+00
  0.00000000E+00  0.00000000E+00  0.00000000E+00
  0.00000000E+00  0.00000000E+00  0.00000000E+00
  0.00000000E+00  0.00000000E+00  0.00000000E+00
  0.00000000E+00  0.00000000E+00  0.00000000E+00
  0.00000000E+00  0.00000000E+00  0.00000000E+00
  0.00000000E+00  0.00000000E+00  0.00000000E+00
  0.00000000E+00  0.00000000E+00  0.00000000E+00
  0.00000000E+00  0.00000000E+00  0.00000000E+00
  0.00000000E+00  0.00000000E+00  0.00000000E+00
  0.00000000E+00  0.00000000E+00  0.00000000E+00
  0.00000000E+00  0.00000000E+00  0.00000000E+00
  0.00000000E+00  0.00000000E+00  0.00000000E+00
  0.00000000E+00  0.00000000E+00  0.00000000E+00
  0.00000000E+00  0.00000000E+00  0.00000000E+00
  0.00000000E+00  0.00000000E+00  0.00000000E+00
  0.00000000E+00  0.00000000E+00  0.00000000E+00
  0.00000000E+00  0.00000000E+00  0.00000000E+00
  0.00000000E+00  0.00000000E+00  0.00000000E+00
  0.00000000E+00  0.00000000E+00  0.00000000E+00
  0.00000000E+00  0.00000000E+00  0.00000000E+00
  0.00000000E+00  0.00000000E+00  0.00000000E+00
  0.00000000E+00  0.00000000E+00  0.00000000E+00
  0.00000000E+00  0.00000000E+00  0.00000000E+00
  0.00000000E+00  0.00000000E+00  0.00000000E+00
  0.00000000E+00  0.00000000E+00  0.00000000E+00
  0.00000000E+00  0.00000000E+00  0.00000000E+00
  0.00000000E+00  0.00000000E+00  0.00000000E+00
  0.00000000E+00  0.00000000E+00  0.00000000E+00
  0.00000000E+00  0.00000000E+00  0.00000000E+00
  0.00000000E+00  0.00000000E+00  0.00000000E+00
  0.00000000E+00  0.00000000E+00  0.00000000E+00
  0.00000000E+00  0.00000000E+00  0.00000000E+00
  0.00000000E+00  0.00000000E+00  0.00000000E+00
  0.00000000E+00  0.00000000E+00  0.00000000E+00
  0.00000000E+00  0.00000000E+00  0.00000000E+00
  0.00000000E+00  0.00000000E+00  0.00000000E+00
  0.00000000E+00  0.00000000E+00  0.00000000E+00
  0.00000000E+00  0.00000000E+00  0.00000000E+00
  0.00000000E+00  0.00000000E+00  0.00000000E+00
  0.00000000E+00  0.00000000E+00  0.00000000E+00
  0.00000000E+00  0.00000000E+00  0.00000000E+00
  0.00000000E+00  0.00000000E+00  0.00000000E+00
  0.00000000E+00  0.00000000E+00  0.00000000E+00
  0.00000000E+00  0.00000000E+00  0.00000000E+00
  0.00000000E+00  0.00000000E+00  0.00000000E+00
  0.00000000E+00  0.00000000E+00  0.00000000E+00
  0.00000000E+00  0.00000000E+00  0.00000000E+00
  0.00000000E+00  0.00000000E+00  0.00000000E+00
  0.00000000E+00  0.00000000E+00  0.00000000E+00
  0.00000000E+00  0.00000000E+00  0.00000000E+00
  0.00000000E+00  0.00000000E+00  0.00000000E+00
  0.00000000E+00  0.00000000E+00  0.00000000E+00
  0.00000000E+00  0.00000000E+00  0.00000000E+00
  0.00000000E+00  0.00000000E+00  0.00000000E+00
  0.00000000E+00  0.00000000E+00  0.00000000E+00
  0.00000000E+00  0.00000000E+00  0.00000000E+00
  0.00000000E+00  0.00000000E+00  0.00000000E+00
  0.00000000E+00  0.00000000E+00  0.00000000E+00
  0.00000000E+00  0.00000000E+00  0.00000000E+00
  0.00000000E+00  0.00000000E+00  0.00000000E+00
  0.00000000E+00  0.00000000E+00  0.00000000E+00
  0.00000000E+00  0.00000000E+00  0.00000000E+00
  0.00000000E+00  0.00000000E+00  0.00000000E+00
  0.00000000E+00  0.00000000E+00  0.00000000E+00
  0.00000000E+00  0.00000000E+00  0.00000000E+00
  0.00000000E+00  0.00000000E+00  0.00000000E+00
  0.00000000E+00  0.00000000E+00  0.00000000E+00
  0.00000000E+00  0.00000000E+00  0.00000000E+00
  0.00000000E+00  0.00000000E+00  0.00000000E+00
  0.00000000E+00  0.00000000E+00  0.00000000E+00
  0.00000000E+00  0.00000000E+00  0.00000000E+00
  0.00000000E+00  0.00000000E+00  0.00000000E+00
  0.00000000E+00  0.00000000E+00  0.00000000E+00
  0.00000000E+00  0.00000000E+00  0.00000000E+00
  0.00000000E+00  0.00000000E+00  0.00000000E+00
  0.00000000E+00  0.00000000E+00  0.00000000E+00
  0.00000000E+00  0.00000000E+00  0.00000000E+00
  0.00000000E+00  0.00000000E+00  0.00000000E+00
  0.00000000E+00  0.00000000E+00  0.00000000E+00
  0.00000000E+00  0.00000000E+00  0.00000000E+00
  0.00000000E+00  0.00000000E+00  0.00000000E+00
  0.00000000E+00  0.00000000E+00  0.00000000E+00
  0.00000000E+00  0.00000000E+00  0.00000000E+00
  0.00000000E+00  0.00000000E+00  0.00000000E+00
  0.00000000E+00  0.00000000E+00  0.00000000E+00
  0.00000000E+00  0.00000000E+00  0.00000000E+00
  0.00000000E+00  0.00000000E+00  0.00000000E+00
  0.00000000E+00  0.00000000E+00  0.00000000E+00
  0.00000000E+00  0.00000000E+00  0.00000000E+00
  0.00000000E+00  0.00000000E+00  0.00000000E+00
  0.00000000E+00  0.00000000E+00  0.00000000E+00
  0.00000000E+00  0.00000000E+00  0.00000000E+00
  0.00000000E+00  0.00000000E+00  0.00000000E+00
  0.00000000E+00  0.00000000E+00  0.00000000E+00
  0.00000000E+00  0.00000000E+00  0.00000000E+00
  0.00000000E+00  0.00000000E+00  0.00000000E+00
  0.00000000E+00  0.00000000E+00  0.00000000E+00
  0.00000000E+00  0.00000000E+00  0.00000000E+00
  0.00000000E+00  0.00000000E+00  0.00000000E+00
  0.00000000E+00  0.00000000E+00  0.00000000E+00
  0.00000000E+00  0.00000000E+00  0.00000000E+00
  0.00000000E+00  0.00000000E+00  0.00000000E+00
  0.00000000E+00  0.00000000E+00  0.00000000E+00
  0.00000000E+00  0.00000000E+00  0.00000000E+00
  0.00000000E+00  0.00000000E+00  0.00000000E+00
  0.00000000E+00  0.00000000E+00  0.00000000E+00
  0.00000000E+00  0.00000000E+00  0.00000000E+00
  0.00000000E+00  0.00000000E+00  0.00000000E+00
  0.00000000E+00  0.00000000E+00  0.00000000E+00
  0.00000000E+00  0.00000000E+00  0.00000000E+00
  0.00000000E+00  0.00000000E+00  0.00000000E+00
  0.00000000E+00  0.00000000E+00  0.00000000E+00
  0.00000000E+00  0.00000000E+00  0.00000000E+00
  0.00000000E+00  0.00000000E+00  0.00000000E+00
  0.00000000E+00  0.00000000E+00  0.00000000E+00
  0.00000000E+00  0.00000000E+00  0.00000000E+00
  0.00000000E+00  0.00000000E+00  0.00000000E+00
  0.00000000E+00  0.00000000E+00  0.00000000E+00
  0.00000000E+00  0.00000000E+00  0.00000000E+00
  0.00000000E+00  0.00000000E+00  0.00000000E+00
  0.00000000E+00  0.00000000E+00  0.00000000E+00
  0.00000000E+00  0.00000000E+00  0.00000000E+00
  0.00000000E+00  0.00000000E+00  0.00000000E+00
  0.00000000E+00  0.00000000E+00  0.00000000E+00
  0.00000000E+00  0.00000000E+00  0.00000000E+00
  0.00000000E+00  0.00000000E+00  0.00000000E+00
  0.00000000E+00  0.00000000E+00  0.00000000E+00
