0.0                                     
   3.00000000000000     
     4.4855199999999993    0.0000000000000000    0.0000000000000000
     0.0000000000000000    4.2656030930919728    0.0000000000000000
     0.0000000000000000    0.0000000000000000    4.2637523023966386
   Mo   Nb   Ta   W 
    32    32    32    32
Selective dynamics
Direct
  0.0025216193439976  0.9990760787324291  0.9980224392342989   T   T   T
  0.9986673553699444  0.0014708706948899  0.7493487642972969   T   T   T
  0.0000408421955398  0.7520888395326701  0.0000210579951544   T   T   T
  0.0034073672333759  0.7519141784175075  0.2483542312830810   T   T   T
  0.9972154039705727  0.7537626912295722  0.7506298654919984   T   T   T
  0.1222642163393986  0.1239759555690978  0.6239385863997153   T   T   T
  0.1199530396348279  0.1232846184663804  0.8741188454345323   T   T   T
  0.1255477260971762  0.6280694444446782  0.1264124343576558   T   T   T
  0.1249463560292682  0.8738752022241354  0.1266742740281552   T   T   T
  0.2481998608152371  0.9984301199281170  0.2515885846369341   T   T   T
  0.2494154866152883  0.7515439693447896  0.2483593247317840   T   T   T
  0.2482470605039915  0.7532416249989936  0.4981570872981525   T   T   T
  0.3755360402001261  0.1247588513369106  0.6236771329179837   T   T   T
  0.3737200291595658  0.6254886529873132  0.1262769600444512   T   T   T
  0.3722501903372945  0.8751085695022784  0.3743307450875171   T   T   T
  0.5002834091455379  0.2483379087140299  0.5020845294724016   T   T   T
  0.4989449452956513  0.5017722463218854  0.2503548268585519   T   T   T
  0.5013556655616966  0.4989465144802556  0.4997354183789124   T   T   T
  0.6255323990001999  0.1257330882927540  0.6257571631793570   T   T   T
  0.6268673834025766  0.1265599400430477  0.8716702250363343   T   T   T
  0.6231976509241155  0.3741009741986137  0.6268220535783627   T   T   T
  0.6256790967857339  0.3762621113673575  0.8717353028725946   T   T   T
  0.6229303496057573  0.6260247927894130  0.1245645566478864   T   T   T
  0.6217119486857203  0.6257670521977287  0.3746236924228783   T   T   T
  0.7490305145321476  0.2489707523201435  0.7505650749711252   T   T   T
  0.7482187311801342  0.4991935975577491  0.7508271242473122   T   T   T
  0.7506407546032237  0.7519025706272309  0.5007253908000431   T   T   T
  0.8764404777975005  0.1241588502798247  0.6262438393518472   T   T   T
  0.8729567614661874  0.3733519894077300  0.8738611232939804   T   T   T
  0.8776811790295792  0.6270011026483778  0.1242207837489396   T   T   T
  0.8782496961212906  0.8760441493863393  0.3761495352473671   T   T   T
  0.8786954738638786  0.8760025180598580  0.8746351025689735   T   T   T
  0.9962832662823206  0.5037268967432816  0.9994838846769742   T   T   T
  0.1262987525929766  0.6278282375645261  0.3713699711298280   T   T   T
  0.1219375887168919  0.6268754428142804  0.6225631533449425   T   T   T
  0.1208833420668452  0.6288014014561147  0.8773134471706964   T   T   T
  0.2452744086399384  0.0002569747282390  0.0016890841107358   T   T   T
  0.2438518496998707  0.0003479911025589  0.7481616717987852   T   T   T
  0.2488937909454234  0.2463473568150849  0.7484287105047660   T   T   T
  0.2492316826314541  0.5027713962401696  0.0012929815532902   T   T   T
  0.3795767232970484  0.3725803855904660  0.6236029246797091   T   T   T
  0.3786963916061621  0.3751626158697618  0.8741242271074281   T   T   T
  0.3748813031936912  0.6254500689710031  0.3717843771888717   T   T   T
  0.3776519038454212  0.6249415153071798  0.6227512277120594   T   T   T
  0.3710303500653603  0.8728145425854580  0.1280956904664119   T   T   T
  0.5003765452712776  0.0004089405702719  0.5021473400082084   T   T   T
  0.5019576990578025  0.2491273284799722  0.9983032834928717   T   T   T
  0.4997286036512111  0.7484143356158508  0.0033243849880429   T   T   T
  0.5023405310488888  0.7497050105710187  0.4984857175608262   T   T   T
  0.6223132570508241  0.3772635262411995  0.1249534175875985   T   T   T
  0.6200271724805080  0.3761153027700792  0.3780249235998308   T   T   T
  0.7546891013653031 -0.0000086125941317  0.9971592400613351   T   T   T
  0.7528950819448567  0.0016138584461725  0.7478783453082031   T   T   T
  0.7516505994857060  0.2509387730244066  0.9957508868542682   T   T   T
  0.7470208476180423  0.2475107314884119  0.5038308370581752   T   T   T
  0.7505908508188408  0.5010891764857507  0.9992923082322285   T   T   T
  0.7472982278917223  0.5035041140958536  0.2494694650183907   T   T   T
  0.7447085529900693  0.5006290556490702  0.5008057869114990   T   T   T
  0.7525456833907977  0.7480661837009379  0.2493813868345580   T   T   T
  0.8797880036582379  0.1229684267481846  0.1233953860006983   T   T   T
  0.8725902991820579  0.3733587737970001  0.6256765556595151   T   T   T
  0.8764577017535810  0.6256041698141666  0.3742412283920813   T   T   T
  0.8721562060823845  0.6262428592177727  0.6244405684533522   T   T   T
  0.8821447018886608  0.8729957325583699  0.1237015371557809   T   T   T
  0.0037041935288956  0.2464354034313660  0.2501508283251454   T   T   T
  0.9940620126683092  0.4995784779100528  0.7520889314460267   T   T   T
  0.9992135958150384  0.7556347026863337  0.4984921597954561   T   T   T
  0.1244268869009789  0.3773349773199244  0.1261090976527154   T   T   T
  0.1240401995284730  0.3760298621990708  0.3762273920210194   T   T   T
  0.1216505033847290  0.3713469377954061  0.6229308756604902   T   T   T
  0.1210890077378497  0.3730016441199298  0.8744785395606964   T   T   T
  0.2477774841962956  0.2462573245128832  0.0007356945646980   T   T   T
  0.2503274673744667  0.2474009215950391  0.2498324198133469   T   T   T
  0.2526975232868122  0.4987897211350966  0.4994601668102814   T   T   T
  0.2495229940415703  0.5012450605002270  0.7478756180286915   T   T   T
  0.2455947814474384  0.7513815300184232  0.7500950000199988   T   T   T
  0.3728843359024732  0.1226549102462994  0.3774029676446353   T   T   T
  0.3765322241968904  0.1242672159870227  0.8713758390782951   T   T   T
  0.3753342843276375  0.3789814870501848  0.1257862848450736   T   T   T
  0.3768622855518257  0.6250957124266474  0.8766136621034251   T   T   T
  0.3722695966699885  0.8767143816091623  0.6232128657462996   T   T   T
  0.3734120144777415  0.8756364907297093  0.8744104203362900   T   T   T
  0.4993729610511325  0.0013562234676915  0.0000478344160653   T   T   T
  0.4981198862153745  0.2486863773629852  0.2525791114202610   T   T   T
  0.5037580788700314  0.7504083646389517  0.7460587023353358   T   T   T
  0.6249610193747537  0.1218310173803841  0.1261884383387830   T   T   T
  0.6264003653418918  0.6232745330772320  0.8747537398201066   T   T   T
  0.6254329543393209  0.8734057644972137  0.1272915906204213   T   T   T
  0.6260726001966932  0.8735495917685371  0.3756969187846945   T   T   T
  0.6273411884753820  0.8748013898434462  0.8757870017381562   T   T   T
  0.7541613690658973  0.9982372030098335  0.2539292310337152   T   T   T
  0.7478717198049670  0.2477379305030153  0.2522042052216422   T   T   T
  0.7523269190666719  0.7526165331895248  0.7491182622029415   T   T   T
  0.8790210119571935  0.1235528815562592  0.3791286020436826   T   T   T
  0.8780109200084929  0.3758993386866050  0.1258450159917793   T   T   T
  0.8783196874362318  0.3752797993659740  0.3767158396793136   T   T   T
  0.0051509231723563  0.9982430575228781  0.2515413227218737   T   T   T
  0.0018568833649199  0.9990209880904878  0.5015931408256350   T   T   T
  0.0001850221656238  0.2474862370239768  0.9974266061977637   T   T   T
  0.0008286758453264  0.2452319057761739  0.5025069231803412   T   T   T
  0.9966864294296121  0.2469216158437039  0.7506541561896773   T   T   T
  0.0006876016515759  0.5033290923641720  0.2480210867909713   T   T   T
  0.9986488664895429  0.5016796594222430  0.5004353016530920   T   T   T
  0.1236799667218263  0.1217701987275952  0.1257399872677887   T   T   T
  0.1262677837560757  0.1222471024158843  0.3772831241164382   T   T   T
  0.1269993803390327  0.8763748229009092  0.3740773477195317   T   T   T
  0.1227954042445073  0.8776994163617458  0.6233309051013960   T   T   T
  0.1199138139584619  0.8753219090793656  0.8758551668724625   T   T   T
  0.2468739248459351  0.0006900991271284  0.5000170923351240   T   T   T
  0.2501275848926861  0.2473719893152777  0.4995338684351158   T   T   T
  0.2515388545404365  0.5018903067227409  0.2501283167701483   T   T   T
  0.2456589863315825  0.7515576952806005  0.0017105241228014   T   T   T
  0.3742657555614744  0.1224566717441654  0.1276456900426704   T   T   T
  0.3744394862835976  0.3747465696894774  0.3756603467787300   T   T   T
  0.4977907501091514  0.9988759339027435  0.2519992563572689   T   T   T
  0.5037100462170461  0.0023489535986181  0.7480723178664825   T   T   T
  0.5053018043889823  0.2493130927808617  0.7480961846772525   T   T   T
  0.5019468063672222  0.5008286603686788  0.0007453370125694   T   T   T
  0.5045473473365927  0.4979134117134871  0.7488262607848921   T   T   T
  0.4987373146610022  0.7478494137978169  0.2509110038775623   T   T   T
  0.6233043538307672  0.1216941604230580  0.3780076683794368   T   T   T
  0.6259747268981526  0.6230190446079501  0.6251567171442690   T   T   T
  0.6280236970193841  0.8768944892843932  0.6230858793062154   T   T   T
  0.7514361691359298  0.0000771464668121  0.5023127350160443   T   T   T
  0.7546016976636937  0.7484983650921023  0.9991388366809000   T   T   T
  0.8787338359274411  0.1253455517751355  0.8728426012508290   T   T   T
  0.8734629283246157  0.6277710384571604  0.8750496234246964   T   T   T
  0.8771310552233146  0.8774353521316545  0.6245613874629897   T   T   T
 
  0.00000000E+00  0.00000000E+00  0.00000000E+00
  0.00000000E+00  0.00000000E+00  0.00000000E+00
  0.00000000E+00  0.00000000E+00  0.00000000E+00
  0.00000000E+00  0.00000000E+00  0.00000000E+00
  0.00000000E+00  0.00000000E+00  0.00000000E+00
  0.00000000E+00  0.00000000E+00  0.00000000E+00
  0.00000000E+00  0.00000000E+00  0.00000000E+00
  0.00000000E+00  0.00000000E+00  0.00000000E+00
  0.00000000E+00  0.00000000E+00  0.00000000E+00
  0.00000000E+00  0.00000000E+00  0.00000000E+00
  0.00000000E+00  0.00000000E+00  0.00000000E+00
  0.00000000E+00  0.00000000E+00  0.00000000E+00
  0.00000000E+00  0.00000000E+00  0.00000000E+00
  0.00000000E+00  0.00000000E+00  0.00000000E+00
  0.00000000E+00  0.00000000E+00  0.00000000E+00
  0.00000000E+00  0.00000000E+00  0.00000000E+00
  0.00000000E+00  0.00000000E+00  0.00000000E+00
  0.00000000E+00  0.00000000E+00  0.00000000E+00
  0.00000000E+00  0.00000000E+00  0.00000000E+00
  0.00000000E+00  0.00000000E+00  0.00000000E+00
  0.00000000E+00  0.00000000E+00  0.00000000E+00
  0.00000000E+00  0.00000000E+00  0.00000000E+00
  0.00000000E+00  0.00000000E+00  0.00000000E+00
  0.00000000E+00  0.00000000E+00  0.00000000E+00
  0.00000000E+00  0.00000000E+00  0.00000000E+00
  0.00000000E+00  0.00000000E+00  0.00000000E+00
  0.00000000E+00  0.00000000E+00  0.00000000E+00
  0.00000000E+00  0.00000000E+00  0.00000000E+00
  0.00000000E+00  0.00000000E+00  0.00000000E+00
  0.00000000E+00  0.00000000E+00  0.00000000E+00
  0.00000000E+00  0.00000000E+00  0.00000000E+00
  0.00000000E+00  0.00000000E+00  0.00000000E+00
  0.00000000E+00  0.00000000E+00  0.00000000E+00
  0.00000000E+00  0.00000000E+00  0.00000000E+00
  0.00000000E+00  0.00000000E+00  0.00000000E+00
  0.00000000E+00  0.00000000E+00  0.00000000E+00
  0.00000000E+00  0.00000000E+00  0.00000000E+00
  0.00000000E+00  0.00000000E+00  0.00000000E+00
  0.00000000E+00  0.00000000E+00  0.00000000E+00
  0.00000000E+00  0.00000000E+00  0.00000000E+00
  0.00000000E+00  0.00000000E+00  0.00000000E+00
  0.00000000E+00  0.00000000E+00  0.00000000E+00
  0.00000000E+00  0.00000000E+00  0.00000000E+00
  0.00000000E+00  0.00000000E+00  0.00000000E+00
  0.00000000E+00  0.00000000E+00  0.00000000E+00
  0.00000000E+00  0.00000000E+00  0.00000000E+00
  0.00000000E+00  0.00000000E+00  0.00000000E+00
  0.00000000E+00  0.00000000E+00  0.00000000E+00
  0.00000000E+00  0.00000000E+00  0.00000000E+00
  0.00000000E+00  0.00000000E+00  0.00000000E+00
  0.00000000E+00  0.00000000E+00  0.00000000E+00
  0.00000000E+00  0.00000000E+00  0.00000000E+00
  0.00000000E+00  0.00000000E+00  0.00000000E+00
  0.00000000E+00  0.00000000E+00  0.00000000E+00
  0.00000000E+00  0.00000000E+00  0.00000000E+00
  0.00000000E+00  0.00000000E+00  0.00000000E+00
  0.00000000E+00  0.00000000E+00  0.00000000E+00
  0.00000000E+00  0.00000000E+00  0.00000000E+00
  0.00000000E+00  0.00000000E+00  0.00000000E+00
  0.00000000E+00  0.00000000E+00  0.00000000E+00
  0.00000000E+00  0.00000000E+00  0.00000000E+00
  0.00000000E+00  0.00000000E+00  0.00000000E+00
  0.00000000E+00  0.00000000E+00  0.00000000E+00
  0.00000000E+00  0.00000000E+00  0.00000000E+00
  0.00000000E+00  0.00000000E+00  0.00000000E+00
  0.00000000E+00  0.00000000E+00  0.00000000E+00
  0.00000000E+00  0.00000000E+00  0.00000000E+00
  0.00000000E+00  0.00000000E+00  0.00000000E+00
  0.00000000E+00  0.00000000E+00  0.00000000E+00
  0.00000000E+00  0.00000000E+00  0.00000000E+00
  0.00000000E+00  0.00000000E+00  0.00000000E+00
  0.00000000E+00  0.00000000E+00  0.00000000E+00
  0.00000000E+00  0.00000000E+00  0.00000000E+00
  0.00000000E+00  0.00000000E+00  0.00000000E+00
  0.00000000E+00  0.00000000E+00  0.00000000E+00
  0.00000000E+00  0.00000000E+00  0.00000000E+00
  0.00000000E+00  0.00000000E+00  0.00000000E+00
  0.00000000E+00  0.00000000E+00  0.00000000E+00
  0.00000000E+00  0.00000000E+00  0.00000000E+00
  0.00000000E+00  0.00000000E+00  0.00000000E+00
  0.00000000E+00  0.00000000E+00  0.00000000E+00
  0.00000000E+00  0.00000000E+00  0.00000000E+00
  0.00000000E+00  0.00000000E+00  0.00000000E+00
  0.00000000E+00  0.00000000E+00  0.00000000E+00
  0.00000000E+00  0.00000000E+00  0.00000000E+00
  0.00000000E+00  0.00000000E+00  0.00000000E+00
  0.00000000E+00  0.00000000E+00  0.00000000E+00
  0.00000000E+00  0.00000000E+00  0.00000000E+00
  0.00000000E+00  0.00000000E+00  0.00000000E+00
  0.00000000E+00  0.00000000E+00  0.00000000E+00
  0.00000000E+00  0.00000000E+00  0.00000000E+00
  0.00000000E+00  0.00000000E+00  0.00000000E+00
  0.00000000E+00  0.00000000E+00  0.00000000E+00
  0.00000000E+00  0.00000000E+00  0.00000000E+00
  0.00000000E+00  0.00000000E+00  0.00000000E+00
  0.00000000E+00  0.00000000E+00  0.00000000E+00
  0.00000000E+00  0.00000000E+00  0.00000000E+00
  0.00000000E+00  0.00000000E+00  0.00000000E+00
  0.00000000E+00  0.00000000E+00  0.00000000E+00
  0.00000000E+00  0.00000000E+00  0.00000000E+00
  0.00000000E+00  0.00000000E+00  0.00000000E+00
  0.00000000E+00  0.00000000E+00  0.00000000E+00
  0.00000000E+00  0.00000000E+00  0.00000000E+00
  0.00000000E+00  0.00000000E+00  0.00000000E+00
  0.00000000E+00  0.00000000E+00  0.00000000E+00
  0.00000000E+00  0.00000000E+00  0.00000000E+00
  0.00000000E+00  0.00000000E+00  0.00000000E+00
  0.00000000E+00  0.00000000E+00  0.00000000E+00
  0.00000000E+00  0.00000000E+00  0.00000000E+00
  0.00000000E+00  0.00000000E+00  0.00000000E+00
  0.00000000E+00  0.00000000E+00  0.00000000E+00
  0.00000000E+00  0.00000000E+00  0.00000000E+00
  0.00000000E+00  0.00000000E+00  0.00000000E+00
  0.00000000E+00  0.00000000E+00  0.00000000E+00
  0.00000000E+00  0.00000000E+00  0.00000000E+00
  0.00000000E+00  0.00000000E+00  0.00000000E+00
  0.00000000E+00  0.00000000E+00  0.00000000E+00
  0.00000000E+00  0.00000000E+00  0.00000000E+00
  0.00000000E+00  0.00000000E+00  0.00000000E+00
  0.00000000E+00  0.00000000E+00  0.00000000E+00
  0.00000000E+00  0.00000000E+00  0.00000000E+00
  0.00000000E+00  0.00000000E+00  0.00000000E+00
  0.00000000E+00  0.00000000E+00  0.00000000E+00
  0.00000000E+00  0.00000000E+00  0.00000000E+00
  0.00000000E+00  0.00000000E+00  0.00000000E+00
  0.00000000E+00  0.00000000E+00  0.00000000E+00
  0.00000000E+00  0.00000000E+00  0.00000000E+00
  0.00000000E+00  0.00000000E+00  0.00000000E+00
