0.0                                     
   3.00000000000000     
     4.7443000000000000    0.0000000000000000    0.0000000000000000
     0.0000000000000000    4.1996527799016183    0.0000000000000000
     0.0000000000000000    0.0000000000000000    4.1975090314539614
   Mo   Nb   Ta   W 
    32    32    32    32
Selective dynamics
Direct
  0.0038196423632044  0.9992395413141165  0.9985143275634542   T   T   T
  0.9979171443591773  0.0011613510533742  0.7491866677513094   T   T   T
  0.0002587107190608  0.7516997624820302  0.0000128136056831   T   T   T
  0.0054029584349106  0.7521711728300797  0.2486497937479799   T   T   T
  0.9954437250757397  0.7532063587342557  0.7502295121897107   T   T   T
  0.1196547639759034  0.1244787647246371  0.6240128470718804   T   T   T
  0.1164612244288690  0.1239926110545832  0.8740136434099840   T   T   T
  0.1261286721897768  0.6279151649664190  0.1261811649840357   T   T   T
  0.1248110534891099  0.8741596779459055  0.1263761104447571   T   T   T
  0.2462497554938620  0.9988461022531978  0.2515957098226291   T   T   T
  0.2483177448420621  0.7511741129541308  0.2481521880632490   T   T   T
  0.2470484950089217  0.7526549028286775  0.4987929129888009   T   T   T
  0.3767665778283008  0.1244083724377958  0.6241960623968208   T   T   T
  0.3735058379493528  0.6252802235524824  0.1256888284179528   T   T   T
  0.3701814745629112  0.8749294202436768  0.3749716975845843   T   T   T
  0.5010028403464385  0.2474544896534374  0.5016444462286279   T   T   T
  0.4976306974450688  0.5013287105963768  0.2498857104594038   T   T   T
  0.5021651070192470  0.4993677747745626  0.4995089527349673   T   T   T
  0.6259696370156023  0.1252242363023916  0.6255494733749919   T   T   T
  0.6271734185339647  0.1264282986848548  0.8724341609942948   T   T   T
  0.6225766117656155  0.3744952990598040  0.6266187900179313   T   T   T
  0.6264705394918062  0.3765803300364783  0.8722766230864402   T   T   T
  0.6202961017726641  0.6262154510243954  0.1243295827264969   T   T   T
  0.6185134983402371  0.6259440444292214  0.3743459204278995   T   T   T
  0.7491262648263632  0.2489272816046164  0.7507732938918810   T   T   T
  0.7480221018118206  0.4996621434480294  0.7504500148614501   T   T   T
  0.7504110777824617  0.7517661685038561  0.5006391292743999   T   T   T
  0.8773676727878152  0.1242473063438636  0.6258378181848296   T   T   T
  0.8721826138747899  0.3734891524232713  0.8741135053303976   T   T   T
  0.8800123613351035  0.6268842132387885  0.1239804805976728   T   T   T
  0.8800617405451611  0.8765540498760062  0.3763016850695154   T   T   T
  0.8803542721987515  0.8758766823155392  0.8748245130116455   T   T   T
  0.9949865989236277  0.5036790140674150  0.9993546102752291   T   T   T
  0.1275198217483471  0.6274856222379547  0.3718103897976563   T   T   T
  0.1200965225122469  0.6256072833458911  0.6230219354239663   T   T   T
  0.1186998852151076  0.6274992980349117  0.8770573802709405   T   T   T
  0.2426423670031027  0.0008894167867477  0.0004357016116070   T   T   T
  0.2389536352559752  0.0008021680974588  0.7482054168343792   T   T   T
  0.2484905775090477  0.2472623735393382  0.7481057000835888   T   T   T
  0.2500147129469787  0.5020004782158947  0.0001270807968477   T   T   T
  0.3841882330932757  0.3721423675039656  0.6240422464291173   T   T   T
  0.3829994863836779  0.3744839740609748  0.8731861147249379   T   T   T
  0.3745049210056313  0.6254662003884229  0.3720690970234196   T   T   T
  0.3798885537602874  0.6255082120005713  0.6236586859526118   T   T   T
  0.3678057856496272  0.8725343978427779  0.1272956945816821   T   T   T
  0.5004404367045040  0.0000736023820540  0.5020272973808318   T   T   T
  0.5032906892207559  0.2486229461236475  0.9983655910000532   T   T   T
  0.4991618417693593  0.7487663400296263  0.0030366905439931   T   T   T
  0.5029318084952628  0.7504232780938023  0.4987873052843391   T   T   T
  0.6197444336067695  0.3770309722034763  0.1246601679797765   T   T   T
  0.6157851487628169  0.3752080398585919  0.3773550054538375   T   T   T
  0.7571640589266969 -0.0002062337252929  0.9987355459731102   T   T   T
  0.7552963533988766  0.0022675486316955  0.7483995929553747   T   T   T
  0.7515684476110690  0.2507981381622693  0.9972227193221105   T   T   T
  0.7450909119150709  0.2474568020513553  0.5025786000537031   T   T   T
  0.7514119401099520  0.5014051322516351  0.0002306531517485   T   T   T
  0.7445699507559632  0.5024664029974740  0.2489810767126508   T   T   T
  0.7415940949771813  0.5006228301218065  0.4992671321294384   T   T   T
  0.7531271182943745  0.7481420164665888  0.2490516983273122   T   T   T
  0.8822649362564829  0.1237757257256211  0.1245853136973476   T   T   T
  0.8711444268023267  0.3731317946817118  0.6247101177662403   T   T   T
  0.8776595268167804  0.6250501809068598  0.3737813534808524   T   T   T
  0.8710648145615251  0.6263730853854238  0.6234836826194087   T   T   T
  0.8862307356832586  0.8733106585365119  0.1247727434258005   T   T   T
  0.0069512075751854  0.2469219421827891  0.2503955567294049   T   T   T
  0.9905327653203458  0.4994760984980725  0.7518777961537547   T   T   T
  0.9992220368422825  0.7555100087060352  0.4987363843901694   T   T   T
  0.1245408643370786  0.3782977947567417  0.1256536620101043   T   T   T
  0.1244877623607744  0.3762919550578032  0.3769000687114727   T   T   T
  0.1194543942529434  0.3719470332698047  0.6235964548584766   T   T   T
  0.1187371957430277  0.3734164612036648  0.8738801298430472   T   T   T
  0.2474759828522144  0.2469453148648349 -0.0004684856759022   T   T   T
  0.2500747856053998  0.2478991013909872  0.2492489100161332   T   T   T
  0.2545025970110019  0.4978761180531319  0.5008227760830677   T   T   T
  0.2504914217787879  0.5005724388887767  0.7476956630772733   T   T   T
  0.2431085903184974  0.7505408870879784  0.7507501892007509   T   T   T
  0.3707236476203741  0.1221517074925438  0.3777142950768099   T   T   T
  0.3780517108528651  0.1236691055130318  0.8706343283606868   T   T   T
  0.3765391625794638  0.3782967399193658  0.1250687197136662   T   T   T
  0.3789867628383018  0.6256398481888121  0.8761324609716701   T   T   T
  0.3703510800855549  0.8768961059008291  0.6240252889843175   T   T   T
  0.3727126906783139  0.8760651719438829  0.8731141931088638   T   T   T
  0.4983406219379459  0.0005865278968231  0.0005792934809859   T   T   T
  0.4955794949603788  0.2471820128581043  0.2524408340234096   T   T   T
  0.5066912540080504  0.7519197102243018  0.7460485642723469   T   T   T
  0.6241726905557839  0.1206234077583307  0.1265576718853900   T   T   T
  0.6281484444327708  0.6244541954230282  0.8754135244955743   T   T   T
  0.6246312911728510  0.8732503124147155  0.1277982972644552   T   T   T
  0.6260734956361048  0.8737209214524301  0.3750480777186548   T   T   T
  0.6295935197890463  0.8750129559466938  0.8772350581287784   T   T   T
  0.7557552069730538  0.9987736009462649  0.2540704686942553   T   T   T
  0.7463338801431205  0.2474734430114705  0.2524401158303893   T   T   T
  0.7532667533291266  0.7531116185182102  0.7495846097544449   T   T   T
  0.8812800973258034  0.1242943761766839  0.3792819827091812   T   T   T
  0.8791657526508211  0.3759968807157765  0.1270820536362085   T   T   T
  0.8794072279835435  0.3750526402275359  0.3761883361673822   T   T   T
  0.0079589181008991  0.9988838042191023  0.2520941647164611   T   T   T
  0.0034253385399814  0.9989101089244938  0.5014178250131931   T   T   T
  0.0001219753801248  0.2478663791641751  0.9981440489831294   T   T   T
  0.0012756041455744  0.2454734458699025  0.5023348534654205   T   T   T
  0.9951346373418779  0.2472996883092047  0.7506889591904751   T   T   T
  0.0018173053914023  0.5035219947980056  0.2484465047121170   T   T   T
  0.9983695559121302  0.5019112776990113  0.5003396236128638   T   T   T
  0.1229907736776428  0.1227915524682941  0.1254038592657334   T   T   T
  0.1272646728294314  0.1229080544649175  0.3774853084524339   T   T   T
  0.1279240900397121  0.8762271869911404  0.3744674671189641   T   T   T
  0.1215108359883128  0.8771178655095193  0.6231689579858962   T   T   T
  0.1166927809037454  0.8748961422435958  0.8754371989061011   T   T   T
  0.2448657076924365  0.0010499748762842  0.5006863839509562   T   T   T
  0.2502171169224474  0.2476498745984168  0.4998543541479577   T   T   T
  0.2531282832176558  0.5012096978063086  0.2501688048437994   T   T   T
  0.2438034824510918  0.7511881339403071  0.0006661954557412   T   T   T
  0.3732799523349583  0.1225943100300396  0.1267715894503589   T   T   T
  0.3748527593483513  0.3738620136520268  0.3757034505585080   T   T   T
  0.4950022143532976  0.9981549354108082  0.2520224193529032   T   T   T
  0.5072836464961434  0.0015922094859577  0.7479646125494682   T   T   T
  0.5096414548875902  0.2486353481393842  0.7480641450986246   T   T   T
  0.5033948996371932  0.5011742530455433  0.0001404099196360   T   T   T
  0.5087608156517721  0.4990849928338410  0.7491140260260473   T   T   T
  0.4970016600672875  0.7485247758926736  0.2509534165557828   T   T   T
  0.6210332110639915  0.1211379854842295  0.3777380169183486   T   T   T
  0.6270102006130861  0.6240989116242514  0.6253328395140197   T   T   T
  0.6306283454797359  0.8772537451991129  0.6231059349448322   T   T   T
  0.7512966760116575  0.0000113341705368  0.5018177465373213   T   T   T
  0.7564391525196541  0.7484257059780431  0.9997865073154608   T   T   T
  0.8806589967762050  0.1256216854321167  0.8734467695365606   T   T   T
  0.8725584093223234  0.6276499469024852  0.8749280970823075   T   T   T
  0.8776350240614675  0.8775629896487914  0.6242675077637555   T   T   T
 
  0.00000000E+00  0.00000000E+00  0.00000000E+00
  0.00000000E+00  0.00000000E+00  0.00000000E+00
  0.00000000E+00  0.00000000E+00  0.00000000E+00
  0.00000000E+00  0.00000000E+00  0.00000000E+00
  0.00000000E+00  0.00000000E+00  0.00000000E+00
  0.00000000E+00  0.00000000E+00  0.00000000E+00
  0.00000000E+00  0.00000000E+00  0.00000000E+00
  0.00000000E+00  0.00000000E+00  0.00000000E+00
  0.00000000E+00  0.00000000E+00  0.00000000E+00
  0.00000000E+00  0.00000000E+00  0.00000000E+00
  0.00000000E+00  0.00000000E+00  0.00000000E+00
  0.00000000E+00  0.00000000E+00  0.00000000E+00
  0.00000000E+00  0.00000000E+00  0.00000000E+00
  0.00000000E+00  0.00000000E+00  0.00000000E+00
  0.00000000E+00  0.00000000E+00  0.00000000E+00
  0.00000000E+00  0.00000000E+00  0.00000000E+00
  0.00000000E+00  0.00000000E+00  0.00000000E+00
  0.00000000E+00  0.00000000E+00  0.00000000E+00
  0.00000000E+00  0.00000000E+00  0.00000000E+00
  0.00000000E+00  0.00000000E+00  0.00000000E+00
  0.00000000E+00  0.00000000E+00  0.00000000E+00
  0.00000000E+00  0.00000000E+00  0.00000000E+00
  0.00000000E+00  0.00000000E+00  0.00000000E+00
  0.00000000E+00  0.00000000E+00  0.00000000E+00
  0.00000000E+00  0.00000000E+00  0.00000000E+00
  0.00000000E+00  0.00000000E+00  0.00000000E+00
  0.00000000E+00  0.00000000E+00  0.00000000E+00
  0.00000000E+00  0.00000000E+00  0.00000000E+00
  0.00000000E+00  0.00000000E+00  0.00000000E+00
  0.00000000E+00  0.00000000E+00  0.00000000E+00
  0.00000000E+00  0.00000000E+00  0.00000000E+00
  0.00000000E+00  0.00000000E+00  0.00000000E+00
  0.00000000E+00  0.00000000E+00  0.00000000E+00
  0.00000000E+00  0.00000000E+00  0.00000000E+00
  0.00000000E+00  0.00000000E+00  0.00000000E+00
  0.00000000E+00  0.00000000E+00  0.00000000E+00
  0.00000000E+00  0.00000000E+00  0.00000000E+00
  0.00000000E+00  0.00000000E+00  0.00000000E+00
  0.00000000E+00  0.00000000E+00  0.00000000E+00
  0.00000000E+00  0.00000000E+00  0.00000000E+00
  0.00000000E+00  0.00000000E+00  0.00000000E+00
  0.00000000E+00  0.00000000E+00  0.00000000E+00
  0.00000000E+00  0.00000000E+00  0.00000000E+00
  0.00000000E+00  0.00000000E+00  0.00000000E+00
  0.00000000E+00  0.00000000E+00  0.00000000E+00
  0.00000000E+00  0.00000000E+00  0.00000000E+00
  0.00000000E+00  0.00000000E+00  0.00000000E+00
  0.00000000E+00  0.00000000E+00  0.00000000E+00
  0.00000000E+00  0.00000000E+00  0.00000000E+00
  0.00000000E+00  0.00000000E+00  0.00000000E+00
  0.00000000E+00  0.00000000E+00  0.00000000E+00
  0.00000000E+00  0.00000000E+00  0.00000000E+00
  0.00000000E+00  0.00000000E+00  0.00000000E+00
  0.00000000E+00  0.00000000E+00  0.00000000E+00
  0.00000000E+00  0.00000000E+00  0.00000000E+00
  0.00000000E+00  0.00000000E+00  0.00000000E+00
  0.00000000E+00  0.00000000E+00  0.00000000E+00
  0.00000000E+00  0.00000000E+00  0.00000000E+00
  0.00000000E+00  0.00000000E+00  0.00000000E+00
  0.00000000E+00  0.00000000E+00  0.00000000E+00
  0.00000000E+00  0.00000000E+00  0.00000000E+00
  0.00000000E+00  0.00000000E+00  0.00000000E+00
  0.00000000E+00  0.00000000E+00  0.00000000E+00
  0.00000000E+00  0.00000000E+00  0.00000000E+00
  0.00000000E+00  0.00000000E+00  0.00000000E+00
  0.00000000E+00  0.00000000E+00  0.00000000E+00
  0.00000000E+00  0.00000000E+00  0.00000000E+00
  0.00000000E+00  0.00000000E+00  0.00000000E+00
  0.00000000E+00  0.00000000E+00  0.00000000E+00
  0.00000000E+00  0.00000000E+00  0.00000000E+00
  0.00000000E+00  0.00000000E+00  0.00000000E+00
  0.00000000E+00  0.00000000E+00  0.00000000E+00
  0.00000000E+00  0.00000000E+00  0.00000000E+00
  0.00000000E+00  0.00000000E+00  0.00000000E+00
  0.00000000E+00  0.00000000E+00  0.00000000E+00
  0.00000000E+00  0.00000000E+00  0.00000000E+00
  0.00000000E+00  0.00000000E+00  0.00000000E+00
  0.00000000E+00  0.00000000E+00  0.00000000E+00
  0.00000000E+00  0.00000000E+00  0.00000000E+00
  0.00000000E+00  0.00000000E+00  0.00000000E+00
  0.00000000E+00  0.00000000E+00  0.00000000E+00
  0.00000000E+00  0.00000000E+00  0.00000000E+00
  0.00000000E+00  0.00000000E+00  0.00000000E+00
  0.00000000E+00  0.00000000E+00  0.00000000E+00
  0.00000000E+00  0.00000000E+00  0.00000000E+00
  0.00000000E+00  0.00000000E+00  0.00000000E+00
  0.00000000E+00  0.00000000E+00  0.00000000E+00
  0.00000000E+00  0.00000000E+00  0.00000000E+00
  0.00000000E+00  0.00000000E+00  0.00000000E+00
  0.00000000E+00  0.00000000E+00  0.00000000E+00
  0.00000000E+00  0.00000000E+00  0.00000000E+00
  0.00000000E+00  0.00000000E+00  0.00000000E+00
  0.00000000E+00  0.00000000E+00  0.00000000E+00
  0.00000000E+00  0.00000000E+00  0.00000000E+00
  0.00000000E+00  0.00000000E+00  0.00000000E+00
  0.00000000E+00  0.00000000E+00  0.00000000E+00
  0.00000000E+00  0.00000000E+00  0.00000000E+00
  0.00000000E+00  0.00000000E+00  0.00000000E+00
  0.00000000E+00  0.00000000E+00  0.00000000E+00
  0.00000000E+00  0.00000000E+00  0.00000000E+00
  0.00000000E+00  0.00000000E+00  0.00000000E+00
  0.00000000E+00  0.00000000E+00  0.00000000E+00
  0.00000000E+00  0.00000000E+00  0.00000000E+00
  0.00000000E+00  0.00000000E+00  0.00000000E+00
  0.00000000E+00  0.00000000E+00  0.00000000E+00
  0.00000000E+00  0.00000000E+00  0.00000000E+00
  0.00000000E+00  0.00000000E+00  0.00000000E+00
  0.00000000E+00  0.00000000E+00  0.00000000E+00
  0.00000000E+00  0.00000000E+00  0.00000000E+00
  0.00000000E+00  0.00000000E+00  0.00000000E+00
  0.00000000E+00  0.00000000E+00  0.00000000E+00
  0.00000000E+00  0.00000000E+00  0.00000000E+00
  0.00000000E+00  0.00000000E+00  0.00000000E+00
  0.00000000E+00  0.00000000E+00  0.00000000E+00
  0.00000000E+00  0.00000000E+00  0.00000000E+00
  0.00000000E+00  0.00000000E+00  0.00000000E+00
  0.00000000E+00  0.00000000E+00  0.00000000E+00
  0.00000000E+00  0.00000000E+00  0.00000000E+00
  0.00000000E+00  0.00000000E+00  0.00000000E+00
  0.00000000E+00  0.00000000E+00  0.00000000E+00
  0.00000000E+00  0.00000000E+00  0.00000000E+00
  0.00000000E+00  0.00000000E+00  0.00000000E+00
  0.00000000E+00  0.00000000E+00  0.00000000E+00
  0.00000000E+00  0.00000000E+00  0.00000000E+00
  0.00000000E+00  0.00000000E+00  0.00000000E+00
  0.00000000E+00  0.00000000E+00  0.00000000E+00
  0.00000000E+00  0.00000000E+00  0.00000000E+00
  0.00000000E+00  0.00000000E+00  0.00000000E+00
