0.0                                     
   3.00000000000000     
     4.8736899999999999    0.0000000000000000    0.0000000000000000
     0.0000000000000000    4.1659824081570180    0.0000000000000000
     0.0000000000000000    0.0000000000000000    4.1610454614512360
   Mo   Nb   Ta   W 
    32    32    32    32
Selective dynamics
Direct
  0.0041321225364026  0.9996804412639561  0.9991656338684501   T   T   T
  0.9961271133856064  0.0012035911187048  0.7493205910403902   T   T   T
  0.0015758957464697  0.7515006218443431 -0.0005325453794336   T   T   T
  0.0087846103163496  0.7516853261851484  0.2484459563751207   T   T   T
  0.9938356244121296  0.7528059012027546  0.7497486814068532   T   T   T
  0.1147457684450251  0.1252914968889158  0.6239949723852070   T   T   T
  0.1117664134372321  0.1251414500351125  0.8741518749737341   T   T   T
  0.1275454808551604  0.6274020208398405  0.1254270213863123   T   T   T
  0.1252056371783814  0.8742122417108943  0.1259308398610449   T   T   T
  0.2443741639226623  0.9989127847606177  0.2512971534982419   T   T   T
  0.2470701924037111  0.7506201583224156  0.2481081978033289   T   T   T
  0.2457445313049070  0.7522961041710623  0.4997994108371955   T   T   T
  0.3829801204325856  0.1231942958406705  0.6248521792415278   T   T   T
  0.3720308011978895  0.6247579269448629  0.1246385350093792   T   T   T
  0.3656215371798073  0.8747446604417864  0.3767296303623002   T   T   T
  0.5026273406590116  0.2470508770403544  0.5012801598988736   T   T   T
  0.4942328861818518  0.5001703737128388  0.2496804772751344   T   T   T
  0.5019182918420593  0.4998347537508721  0.4995383656324779   T   T   T
  0.6286277289012244  0.1256468113852967  0.6256638515061007   T   T   T
  0.6302172133522347  0.1269903513712261  0.8743512878710524   T   T   T
  0.6235326432574626  0.3755307013031292  0.6260664862805640   T   T   T
  0.6284606107691958  0.3777610458565396  0.8725875357360803   T   T   T
  0.6136309668604008  0.6273298191124971  0.1242684945330378   T   T   T
  0.6131639415023240  0.6263675752383772  0.3738140966570373   T   T   T
  0.7501203025731422  0.2495754526614621  0.7512790498592119   T   T   T
  0.7482883218881581  0.5003760921868045  0.7502864288199452   T   T   T
  0.7509918246672874  0.7512584756403521  0.4991923328499700   T   T   T
  0.8776995940149763  0.1247934674417246  0.6257242669622320   T   T   T
  0.8706925326188929  0.3738328952927440  0.8743467358067976   T   T   T
  0.8851086333873983  0.6264791682070100  0.1240780302333335   T   T   T
  0.8815930575986273  0.8759104254615402  0.3761787268242299   T   T   T
  0.8814154105164365  0.8760830895664360  0.8755788401896920   T   T   T
  0.9944534010868958  0.5029379372534405  0.9990891781113285   T   T   T
  0.1287730204111288  0.6267640962047628  0.3724778112164363   T   T   T
  0.1186838956047367  0.6242804368761051  0.6230432367258411   T   T   T
  0.1163804944137146  0.6266590172876377  0.8762522595715302   T   T   T
  0.2408038017861065  0.0015977053830315 -0.0010981196695719   T   T   T
  0.2318554080164212  0.0028563189312526  0.7486020587597432   T   T   T
  0.2486383142867670  0.2471562526468170  0.7466286719970500   T   T   T
  0.2505944946263838  0.5015991443005485 -0.0021991240109661   T   T   T
  0.3887680460190445  0.3716540635927157  0.6242399509988877   T   T   T
  0.3863101466562978  0.3744336556250414  0.8715330812001985   T   T   T
  0.3730352644374106  0.6252622788935843  0.3725746518745355   T   T   T
  0.3812569885157971  0.6270084314292007  0.6250034242376972   T   T   T
  0.3645915019757519  0.8722609300993607  0.1265231250347749   T   T   T
  0.5016093383506526 -0.0013059099760668  0.5032000463433052   T   T   T
  0.5045850509468364  0.2475492056243462  0.9981227470789961   T   T   T
  0.4977558327053080  0.7501565151886084  0.0022437076100474   T   T   T
  0.5019028948589219  0.7515763999533668  0.4998632831223332   T   T   T
  0.6171668949536645  0.3761523951565086  0.1244835989820336   T   T   T
  0.6114640055812002  0.3739647801878601  0.3767907364712206   T   T   T
  0.7599138348348844 -0.0006948181221338  0.0011118163715971   T   T   T
  0.7579493031196595  0.0029860410025814  0.7492906849427232   T   T   T
  0.7514689200570259  0.2508853837309558  0.9992780215907805   T   T   T
  0.7437239422234021  0.2470306300976668  0.5011149931129293   T   T   T
  0.7520975313194380  0.5030646618231560  0.0025136088417151   T   T   T
  0.7394921019236027  0.5021356475067476  0.2489946051566004   T   T   T
  0.7391440517148526  0.5010770609627911  0.4967135019070540   T   T   T
  0.7553911440594113  0.7454755101912025  0.2478172593891279   T   T   T
  0.8842074501778476  0.1242429973482852  0.1258977955979516   T   T   T
  0.8691539615651565  0.3733086902506880  0.6233868341736174   T   T   T
  0.8800429237666536  0.6232891532897787  0.3721206167892754   T   T   T
  0.8701070297406466  0.6263578395766658  0.6219350013047267   T   T   T
  0.8899748325197241  0.8730097133810144  0.1258023281919563   T   T   T
  0.0091654373669946  0.2481194947630282  0.2503490586263336   T   T   T
  0.9872743542972502  0.4988676355955872  0.7510873477071941   T   T   T
 -0.0003818076729321  0.7547456276106166  0.4981971242948715   T   T   T
  0.1260190288264054  0.3780623574414486  0.1239650408280112   T   T   T
  0.1259428616852702  0.3761831997425957  0.3773850360673718   T   T   T
  0.1175853109307589  0.3723763755247050  0.6240861179474416   T   T   T
  0.1177777708193104  0.3737162726362803  0.8722983399671140   T   T   T
  0.2485183861314050  0.2465411861769292 -0.0030024091368197   T   T   T
  0.2498588870484470  0.2473989553212817  0.2483880498887608   T   T   T
  0.2558790093929619  0.4970463829965378  0.5024284935745935   T   T   T
  0.2519621697014117  0.4998520403265288  0.7474811893575766   T   T   T
  0.2397280893296721  0.7507281608455055  0.7512449984553314   T   T   T
  0.3683679828169805  0.1211518521619960  0.3792527215595110   T   T   T
  0.3812172759595706  0.1219290408667470  0.8679102539722063   T   T   T
  0.3762909197033479  0.3773096822431045  0.1235523887533787   T   T   T
  0.3807532252373639  0.6271721038305293  0.8745952409657519   T   T   T
  0.3668382447027724  0.8797254983380093  0.6266666379421578   T   T   T
  0.3718362175462104  0.8776228777892977  0.8713824783273424   T   T   T
  0.4984027651057702 -0.0001213475781130  0.0013970760204458   T   T   T
  0.4919637842989387  0.2451030493416425  0.2522058880662221   T   T   T
  0.5104533675172094  0.7555125516747335  0.7456876156719606   T   T   T
  0.6236653414904468  0.1182144606298880  0.1287099326762569   T   T   T
  0.6301575639054289  0.6259223929733749  0.8764214168504725   T   T   T
  0.6244272618315627  0.8724614571663721  0.1294249706849284   T   T   T
  0.6270575341013657  0.8729089048406459  0.3742838341066441   T   T   T
  0.6337850801373065  0.8753735216654754  0.8799020696978890   T   T   T
  0.7581954727029658  0.9981537399166693  0.2550335110099778   T   T   T
  0.7452676812518211  0.2473200773441624  0.2529510275907899   T   T   T
  0.7551481402276546  0.7532705040350197  0.7498294303615114   T   T   T
  0.8830930552757337  0.1247711871989448  0.3791140913231215   T   T   T
  0.8787621319326624  0.3765699058532833  0.1289131195248515   T   T   T
  0.8796948286355595  0.3750850654842686  0.3752351836835977   T   T   T
  0.0099925524603087  0.9991677374968253  0.2525586089390862   T   T   T
  0.0033813160999365  0.9987188732789288  0.5012645946195039   T   T   T
 -0.0007793866633924  0.2488371523037810  0.9985642455993567   T   T   T
  0.0006840244549398  0.2461387273667319  0.5020000411471169   T   T   T
  0.9923288076182228  0.2484253289635618  0.7508318207574253   T   T   T
  0.0052809468357920  0.5026794027723255  0.2481616288260329   T   T   T
  0.9979611808191924  0.5015740677828223  0.4997898101857935   T   T   T
  0.1225483135293817  0.1234934367922322  0.1248657956101566   T   T   T
  0.1273483757968747  0.1235708287995524  0.3778537062484113   T   T   T
  0.1282203313052356  0.8762119201269433  0.3749179367629935   T   T   T
  0.1188134136260572  0.8767210590497730  0.6232921603546311   T   T   T
  0.1136596474221708  0.8749297967946427  0.8754775076862318   T   T   T
  0.2416154883192376  0.0019839910748404  0.5020278515126897   T   T   T
  0.2502724190145365  0.2475895919711633  0.5011400446177867   T   T   T
  0.2535645035867524  0.5007776259034977  0.2499794739834848   T   T   T
  0.2428097549626817  0.7512229087804356 -0.0007024088042245   T   T   T
  0.3722668348577696  0.1217580242332482  0.1257724576938894   T   T   T
  0.3742409635754073  0.3729107686470967  0.3753928212125058   T   T   T
  0.4906616590420893  0.9963605963640565  0.2528322109246103   T   T   T
  0.5157209407848138  0.0012206792394981  0.7491712656894736   T   T   T
  0.5150776875729933  0.2490611292161801  0.7484171002284398   T   T   T
  0.5035073465984463  0.5013502381365635 -0.0004972500130570   T   T   T
  0.5122444037153620  0.5008873643894055  0.7491316511630391   T   T   T
  0.4924540203893329  0.7490888309365741  0.2514541252994388   T   T   T
  0.6186722910411205  0.1198956349475582  0.3775464406350046   T   T   T
  0.6282677897964293  0.6253795217960423  0.6249656379963363   T   T   T
  0.6361195204617639  0.8778236702600302  0.6228025155678437   T   T   T
  0.7524300314080052  0.0000003108784955  0.5012956146603952   T   T   T
  0.7592893047245165  0.7486054659857830  0.0011524464785924   T   T   T
  0.8809730717700667  0.1261573430017944  0.8747793454849853   T   T   T
  0.8723678550699032  0.6278078542413303  0.8751702356280530   T   T   T
  0.8781400821661048  0.8773833412133889  0.6238685943062681   T   T   T
 
  0.00000000E+00  0.00000000E+00  0.00000000E+00
  0.00000000E+00  0.00000000E+00  0.00000000E+00
  0.00000000E+00  0.00000000E+00  0.00000000E+00
  0.00000000E+00  0.00000000E+00  0.00000000E+00
  0.00000000E+00  0.00000000E+00  0.00000000E+00
  0.00000000E+00  0.00000000E+00  0.00000000E+00
  0.00000000E+00  0.00000000E+00  0.00000000E+00
  0.00000000E+00  0.00000000E+00  0.00000000E+00
  0.00000000E+00  0.00000000E+00  0.00000000E+00
  0.00000000E+00  0.00000000E+00  0.00000000E+00
  0.00000000E+00  0.00000000E+00  0.00000000E+00
  0.00000000E+00  0.00000000E+00  0.00000000E+00
  0.00000000E+00  0.00000000E+00  0.00000000E+00
  0.00000000E+00  0.00000000E+00  0.00000000E+00
  0.00000000E+00  0.00000000E+00  0.00000000E+00
  0.00000000E+00  0.00000000E+00  0.00000000E+00
  0.00000000E+00  0.00000000E+00  0.00000000E+00
  0.00000000E+00  0.00000000E+00  0.00000000E+00
  0.00000000E+00  0.00000000E+00  0.00000000E+00
  0.00000000E+00  0.00000000E+00  0.00000000E+00
  0.00000000E+00  0.00000000E+00  0.00000000E+00
  0.00000000E+00  0.00000000E+00  0.00000000E+00
  0.00000000E+00  0.00000000E+00  0.00000000E+00
  0.00000000E+00  0.00000000E+00  0.00000000E+00
  0.00000000E+00  0.00000000E+00  0.00000000E+00
  0.00000000E+00  0.00000000E+00  0.00000000E+00
  0.00000000E+00  0.00000000E+00  0.00000000E+00
  0.00000000E+00  0.00000000E+00  0.00000000E+00
  0.00000000E+00  0.00000000E+00  0.00000000E+00
  0.00000000E+00  0.00000000E+00  0.00000000E+00
  0.00000000E+00  0.00000000E+00  0.00000000E+00
  0.00000000E+00  0.00000000E+00  0.00000000E+00
  0.00000000E+00  0.00000000E+00  0.00000000E+00
  0.00000000E+00  0.00000000E+00  0.00000000E+00
  0.00000000E+00  0.00000000E+00  0.00000000E+00
  0.00000000E+00  0.00000000E+00  0.00000000E+00
  0.00000000E+00  0.00000000E+00  0.00000000E+00
  0.00000000E+00  0.00000000E+00  0.00000000E+00
  0.00000000E+00  0.00000000E+00  0.00000000E+00
  0.00000000E+00  0.00000000E+00  0.00000000E+00
  0.00000000E+00  0.00000000E+00  0.00000000E+00
  0.00000000E+00  0.00000000E+00  0.00000000E+00
  0.00000000E+00  0.00000000E+00  0.00000000E+00
  0.00000000E+00  0.00000000E+00  0.00000000E+00
  0.00000000E+00  0.00000000E+00  0.00000000E+00
  0.00000000E+00  0.00000000E+00  0.00000000E+00
  0.00000000E+00  0.00000000E+00  0.00000000E+00
  0.00000000E+00  0.00000000E+00  0.00000000E+00
  0.00000000E+00  0.00000000E+00  0.00000000E+00
  0.00000000E+00  0.00000000E+00  0.00000000E+00
  0.00000000E+00  0.00000000E+00  0.00000000E+00
  0.00000000E+00  0.00000000E+00  0.00000000E+00
  0.00000000E+00  0.00000000E+00  0.00000000E+00
  0.00000000E+00  0.00000000E+00  0.00000000E+00
  0.00000000E+00  0.00000000E+00  0.00000000E+00
  0.00000000E+00  0.00000000E+00  0.00000000E+00
  0.00000000E+00  0.00000000E+00  0.00000000E+00
  0.00000000E+00  0.00000000E+00  0.00000000E+00
  0.00000000E+00  0.00000000E+00  0.00000000E+00
  0.00000000E+00  0.00000000E+00  0.00000000E+00
  0.00000000E+00  0.00000000E+00  0.00000000E+00
  0.00000000E+00  0.00000000E+00  0.00000000E+00
  0.00000000E+00  0.00000000E+00  0.00000000E+00
  0.00000000E+00  0.00000000E+00  0.00000000E+00
  0.00000000E+00  0.00000000E+00  0.00000000E+00
  0.00000000E+00  0.00000000E+00  0.00000000E+00
  0.00000000E+00  0.00000000E+00  0.00000000E+00
  0.00000000E+00  0.00000000E+00  0.00000000E+00
  0.00000000E+00  0.00000000E+00  0.00000000E+00
  0.00000000E+00  0.00000000E+00  0.00000000E+00
  0.00000000E+00  0.00000000E+00  0.00000000E+00
  0.00000000E+00  0.00000000E+00  0.00000000E+00
  0.00000000E+00  0.00000000E+00  0.00000000E+00
  0.00000000E+00  0.00000000E+00  0.00000000E+00
  0.00000000E+00  0.00000000E+00  0.00000000E+00
  0.00000000E+00  0.00000000E+00  0.00000000E+00
  0.00000000E+00  0.00000000E+00  0.00000000E+00
  0.00000000E+00  0.00000000E+00  0.00000000E+00
  0.00000000E+00  0.00000000E+00  0.00000000E+00
  0.00000000E+00  0.00000000E+00  0.00000000E+00
  0.00000000E+00  0.00000000E+00  0.00000000E+00
  0.00000000E+00  0.00000000E+00  0.00000000E+00
  0.00000000E+00  0.00000000E+00  0.00000000E+00
  0.00000000E+00  0.00000000E+00  0.00000000E+00
  0.00000000E+00  0.00000000E+00  0.00000000E+00
  0.00000000E+00  0.00000000E+00  0.00000000E+00
  0.00000000E+00  0.00000000E+00  0.00000000E+00
  0.00000000E+00  0.00000000E+00  0.00000000E+00
  0.00000000E+00  0.00000000E+00  0.00000000E+00
  0.00000000E+00  0.00000000E+00  0.00000000E+00
  0.00000000E+00  0.00000000E+00  0.00000000E+00
  0.00000000E+00  0.00000000E+00  0.00000000E+00
  0.00000000E+00  0.00000000E+00  0.00000000E+00
  0.00000000E+00  0.00000000E+00  0.00000000E+00
  0.00000000E+00  0.00000000E+00  0.00000000E+00
  0.00000000E+00  0.00000000E+00  0.00000000E+00
  0.00000000E+00  0.00000000E+00  0.00000000E+00
  0.00000000E+00  0.00000000E+00  0.00000000E+00
  0.00000000E+00  0.00000000E+00  0.00000000E+00
  0.00000000E+00  0.00000000E+00  0.00000000E+00
  0.00000000E+00  0.00000000E+00  0.00000000E+00
  0.00000000E+00  0.00000000E+00  0.00000000E+00
  0.00000000E+00  0.00000000E+00  0.00000000E+00
  0.00000000E+00  0.00000000E+00  0.00000000E+00
  0.00000000E+00  0.00000000E+00  0.00000000E+00
  0.00000000E+00  0.00000000E+00  0.00000000E+00
  0.00000000E+00  0.00000000E+00  0.00000000E+00
  0.00000000E+00  0.00000000E+00  0.00000000E+00
  0.00000000E+00  0.00000000E+00  0.00000000E+00
  0.00000000E+00  0.00000000E+00  0.00000000E+00
  0.00000000E+00  0.00000000E+00  0.00000000E+00
  0.00000000E+00  0.00000000E+00  0.00000000E+00
  0.00000000E+00  0.00000000E+00  0.00000000E+00
  0.00000000E+00  0.00000000E+00  0.00000000E+00
  0.00000000E+00  0.00000000E+00  0.00000000E+00
  0.00000000E+00  0.00000000E+00  0.00000000E+00
  0.00000000E+00  0.00000000E+00  0.00000000E+00
  0.00000000E+00  0.00000000E+00  0.00000000E+00
  0.00000000E+00  0.00000000E+00  0.00000000E+00
  0.00000000E+00  0.00000000E+00  0.00000000E+00
  0.00000000E+00  0.00000000E+00  0.00000000E+00
  0.00000000E+00  0.00000000E+00  0.00000000E+00
  0.00000000E+00  0.00000000E+00  0.00000000E+00
  0.00000000E+00  0.00000000E+00  0.00000000E+00
  0.00000000E+00  0.00000000E+00  0.00000000E+00
  0.00000000E+00  0.00000000E+00  0.00000000E+00
  0.00000000E+00  0.00000000E+00  0.00000000E+00
  0.00000000E+00  0.00000000E+00  0.00000000E+00
