0.0                                     
   3.00000000000000     
     4.9599499999999992    0.0000000000000000    0.0000000000000000
     0.0000000000000000    4.0577163854000027    0.0000000000000000
     0.0000000000000000    0.0000000000000000    4.1576592117659663
   Mo   Nb   Ta   W 
    32    32    32    32
Selective dynamics
Direct
 -0.0065974330771036  0.0043666020238934  0.0048781327576505   T   T   T
  0.9883431258069665  0.0053154700486012  0.7549943972795637   T   T   T
  0.0092365287240219  0.7457450785084476 -0.0028794553540719   T   T   T
  0.0146290174143619  0.7476425597429204  0.2478042414790682   T   T   T
  0.0053917476413896  0.7463644308764090  0.7485095204891706   T   T   T
  0.0917380052521478  0.1416265932730362  0.6401968877014459   T   T   T
  0.0912026835207378  0.1436355173506567  0.8922621775620528   T   T   T
  0.1339503198261194  0.6234986854411784  0.1234818934768375   T   T   T
  0.1148303886600148  0.8820660013763397  0.1344802111111594   T   T   T
  0.2180323835202179  0.0188478572652084  0.2732250437830807   T   T   T
  0.2384248316625842  0.7590045721101494  0.2571422944353178   T   T   T
  0.2376709354700351  0.7594402491113210  0.5096247061604346   T   T   T
  0.4065283729641013  0.1049976347605161  0.5980107715491927   T   T   T
  0.3602923390779843  0.6341499809086801  0.1328808727807068   T   T   T
  0.3429929460692510  0.8937495699759641  0.3989330596504088   T   T   T
  0.5108989432679504  0.2412918059696136  0.4907256098737312   T   T   T
  0.4862699793748117  0.5101710243504454  0.2553996424724511   T   T   T
  0.4917673701304152  0.5065797098425092  0.5053377375795964   T   T   T
  0.6367301473108168  0.1197468816840804  0.6164681217763008   T   T   T
  0.6392051347915668  0.1185318503120401  0.8652811553945920   T   T   T
  0.6156919049072562  0.3819780685372063  0.6290820885585733   T   T   T
  0.6177230794249436  0.3809943172517156  0.8767897234744541   T   T   T
  0.5910615560467763  0.6465965246361712  0.1483545574994356   T   T   T
  0.5916440897667873  0.6466272282531212  0.3973408995468412   T   T   T
  0.7408506190229682  0.2518581785742873  0.7527427845583420   T   T   T
  0.7230785976029432  0.5130049441053027  0.7675378155420434   T   T   T
  0.7776129453399582  0.7342903126292436  0.4853728901919005   T   T   T
  0.8653983644094072  0.1289881795184764  0.6284395080481588   T   T   T
  0.8492783854321274  0.3899516467130407  0.8846244862915642   T   T   T
  0.9080324749562023  0.6106047483293675  0.1124898925010292   T   T   T
  0.8871421226692103  0.8707276767889834  0.3734906873226436   T   T   T
  0.8875141739169203  0.8669594006177040  0.8702077180320582   T   T   T
  0.0166896904181276  0.4836597109697217  0.9876354465562182   T   T   T
  0.1370146073465126  0.6223434452083705  0.3710517017590333   T   T   T
  0.1319503071513185  0.6188296086437560  0.6219274075154403   T   T   T
  0.1270587494465406  0.6215600231904393  0.8739703766401605   T   T   T
  0.2179772738391164  0.0230925398198321  0.0230659053536567   T   T   T
  0.2149009933301746  0.0230698638352631  0.7703425409888149   T   T   T
  0.2782796907554999  0.2234215721719718  0.7212709898057744   T   T   T
  0.2554010537458040  0.4970574260596131 -0.0046941467779055   T   T   T
  0.3918003133933817  0.3642293747099292  0.6162733132184877   T   T   T
  0.3895445142357933  0.3680526446251582  0.8666655198745702   T   T   T
  0.3645298674740078  0.6324114552614555  0.3801205981170871   T   T   T
  0.3696874875866993  0.6312861627252143  0.6321139386600788   T   T   T
  0.3443778453750345  0.8997338589651552  0.1508966353301685   T   T   T
  0.5255483937999221 -0.0197022762242309  0.4819319151227200   T   T   T
  0.5131324658712213  0.2430569932713498 -0.0110986759217380   T   T   T
  0.4731299771029077  0.7686712979176611  0.0254239148027636   T   T   T
  0.4785763894544850  0.7707984285895965  0.5194257731500909   T   T   T
  0.6120713832055878  0.3854224149333657  0.1270201250527091   T   T   T
  0.6095584934543823  0.3847264325390501  0.3801513878712836   T   T   T
  0.7648083493543443 -0.0087477064730740 -0.0060340140710055   T   T   T
  0.7634396430199317 -0.0065043083080968  0.7422457635234692   T   T   T
  0.7442873997991691  0.2562088213256503  0.0003310250773091   T   T   T
  0.7378978985207052  0.2564937679042507  0.5036758621177345   T   T   T
  0.7310570450752515  0.5222987756521913  0.0193122386837536   T   T   T
  0.7173338294952827  0.5273005009578910  0.2704893648233354   T   T   T
  0.7194525928156952  0.5299152534927292  0.5191533056152610   T   T   T
  0.7803138792065282  0.7276637870573532  0.2314963319851703   T   T   T
  0.8720870476255630  0.1302098897839280  0.1281837660622325   T   T   T
  0.8466439844002371  0.3929077640390992  0.6387728641180236   T   T   T
  0.9023732454327276  0.6079021518633354  0.3598909199844801   T   T   T
  0.8994523032335956  0.6043979490307544  0.6083052462060542   T   T   T
  0.8932960734965962  0.8671074293261061  0.1214616012272061   T   T   T
 -0.0180214691867996  0.2726195453082331  0.2624992429220745   T   T   T
  0.0178962860257992  0.4763433680904225  0.7351350370718693   T   T   T
  0.0084704310868803  0.7488379828002111  0.4983327149376875   T   T   T
  0.1450969144912898  0.3575831104398636  0.1089014309606090   T   T   T
  0.1507637707643449  0.3546466941652510  0.3585699035224982   T   T   T
  0.1481774834067119  0.3460232203810149  0.6038923158314751   T   T   T
  0.1429655151220221  0.3489259811047615  0.8554284274543132   T   T   T
  0.2748303346258336  0.2277651063756816 -0.0239797974250392   T   T   T
  0.2742359349353377  0.2224936270986534  0.2253540347767807   T   T   T
  0.2618210555213310  0.4905524271847325  0.4957791846951801   T   T   T
  0.2590731256798752  0.4911030783271412  0.7438790543660452   T   T   T
  0.2359135584193836  0.7585629247279082  0.7588118596379242   T   T   T
  0.3970359701323763  0.0971787539895552  0.3522697604762420   T   T   T
  0.4047247743860823  0.1029278792679709  0.8446133593982084   T   T   T
  0.3831431143550206  0.3737805474038255  0.1177126364739674   T   T   T
  0.3667166043904914  0.6312919919861698  0.8828711334753758   T   T   T
  0.3495127587698963  0.9026213835224449  0.6452947687896484   T   T   T
  0.3458729678687593  0.8963402544800269  0.8979256203906292   T   T   T
  0.5251104065162364 -0.0205357124991868 -0.0207650192843079   T   T   T
  0.5071620719860317  0.2431477086328773  0.2428554832863043   T   T   T
  0.4805214387134923  0.7737018761393318  0.7702267951361489   T   T   T
  0.6359479083723539  0.1165516340474056  0.1181090835516371   T   T   T
  0.6061969242116245  0.6402663603406274  0.8959533725652675   T   T   T
  0.6518844281100773  0.8474940022694345  0.1087080907824716   T   T   T
  0.6498081725425243  0.8506484575780590  0.3598939350743157   T   T   T
  0.6537201071657979  0.8539016347705759  0.8587874964581393   T   T   T
  0.7634154548761495  0.9923238075430728  0.2475810334664670   T   T   T
  0.7397831286336485  0.2576494393778093  0.2530067817107574   T   T   T
  0.7759139402390558  0.7255215985474497  0.7353516135581170   T   T   T
  0.8697109414936285  0.1315682261432705  0.3804699412268212   T   T   T
  0.8571853957846696  0.4018147271946450  0.1398350083257604   T   T   T
  0.8509683479300517  0.3972343470349293  0.3907164649235944   T   T   T
 -0.0045785805139919  0.0061836966332258  0.2583361901955442   T   T   T
 -0.0090996302342000  0.0044692603900894  0.5066828580781171   T   T   T
 -0.0250871697282157  0.2651850602927561  0.0080352172273353   T   T   T
 -0.0246187252537372  0.2670522590047315  0.5147814112625214   T   T   T
  0.9697864164225003  0.2639991325770714  0.7620221572057315   T   T   T
  0.0278924781596959  0.4877195049340788  0.2378037808402932   T   T   T
  0.0242704453497029  0.4774862324985185  0.4842616666976129   T   T   T
  0.0967317001520120  0.1435193246665669  0.1418972267140174   T   T   T
  0.0993675259628530  0.1419702569095306  0.3936268070074729   T   T   T
  0.1166090175768383  0.8834119134675894  0.3835217650804809   T   T   T
  0.1122214587926840  0.8823439784428831  0.6321593013607044   T   T   T
  0.1097933075527641  0.8821210325779391  0.8831333036362411   T   T   T
  0.2196740222821305  0.0230231147459713  0.5196206255833714   T   T   T
  0.2775769759696970  0.2248732490495359  0.4744198321732870   T   T   T
  0.2597338268000985  0.4966876124897661  0.2443386726135765   T   T   T
  0.2339405160895472  0.7600137771735999  0.0095055039859334   T   T   T
  0.4035542573942048  0.1039055561306769  0.1007528364042991   T   T   T
  0.3828073840154738  0.3681782535684988  0.3663495132927158   T   T   T
  0.5260065906685540  0.9773940914296498  0.2300094658949237   T   T   T
  0.5333523711442874 -0.0175070179322863  0.7262847415825017   T   T   T
  0.5193390309488849  0.2422850028277739  0.7395392086467977   T   T   T
  0.4910595594199660  0.5076008329954727  0.0043863044945573   T   T   T
  0.4973215399273054  0.5032181087648711  0.7552259696844126   T   T   T
  0.4707621086036696  0.7748033816313122  0.2724550635951049   T   T   T
  0.6338955172136364  0.1173267096185039  0.3683945530848280   T   T   T
  0.6003731131890097  0.6454812275847905  0.6480846410686487   T   T   T
  0.6537837395643947  0.8546390945224411  0.6089483675696461   T   T   T
  0.7598210097882571 -0.0050207704964855  0.4951435411498100   T   T   T
  0.7848850652563965  0.7277737490064349 -0.0175872521213202   T   T   T
  0.8702430427542851  0.1281823228353827  0.8770436438532621   T   T   T
  0.8974437075365265  0.6025411607907423  0.8613118544418132   T   T   T
  0.8853417104587835  0.8700245533427904  0.6214814431606008   T   T   T
 
  0.00000000E+00  0.00000000E+00  0.00000000E+00
  0.00000000E+00  0.00000000E+00  0.00000000E+00
  0.00000000E+00  0.00000000E+00  0.00000000E+00
  0.00000000E+00  0.00000000E+00  0.00000000E+00
  0.00000000E+00  0.00000000E+00  0.00000000E+00
  0.00000000E+00  0.00000000E+00  0.00000000E+00
  0.00000000E+00  0.00000000E+00  0.00000000E+00
  0.00000000E+00  0.00000000E+00  0.00000000E+00
  0.00000000E+00  0.00000000E+00  0.00000000E+00
  0.00000000E+00  0.00000000E+00  0.00000000E+00
  0.00000000E+00  0.00000000E+00  0.00000000E+00
  0.00000000E+00  0.00000000E+00  0.00000000E+00
  0.00000000E+00  0.00000000E+00  0.00000000E+00
  0.00000000E+00  0.00000000E+00  0.00000000E+00
  0.00000000E+00  0.00000000E+00  0.00000000E+00
  0.00000000E+00  0.00000000E+00  0.00000000E+00
  0.00000000E+00  0.00000000E+00  0.00000000E+00
  0.00000000E+00  0.00000000E+00  0.00000000E+00
  0.00000000E+00  0.00000000E+00  0.00000000E+00
  0.00000000E+00  0.00000000E+00  0.00000000E+00
  0.00000000E+00  0.00000000E+00  0.00000000E+00
  0.00000000E+00  0.00000000E+00  0.00000000E+00
  0.00000000E+00  0.00000000E+00  0.00000000E+00
  0.00000000E+00  0.00000000E+00  0.00000000E+00
  0.00000000E+00  0.00000000E+00  0.00000000E+00
  0.00000000E+00  0.00000000E+00  0.00000000E+00
  0.00000000E+00  0.00000000E+00  0.00000000E+00
  0.00000000E+00  0.00000000E+00  0.00000000E+00
  0.00000000E+00  0.00000000E+00  0.00000000E+00
  0.00000000E+00  0.00000000E+00  0.00000000E+00
  0.00000000E+00  0.00000000E+00  0.00000000E+00
  0.00000000E+00  0.00000000E+00  0.00000000E+00
  0.00000000E+00  0.00000000E+00  0.00000000E+00
  0.00000000E+00  0.00000000E+00  0.00000000E+00
  0.00000000E+00  0.00000000E+00  0.00000000E+00
  0.00000000E+00  0.00000000E+00  0.00000000E+00
  0.00000000E+00  0.00000000E+00  0.00000000E+00
  0.00000000E+00  0.00000000E+00  0.00000000E+00
  0.00000000E+00  0.00000000E+00  0.00000000E+00
  0.00000000E+00  0.00000000E+00  0.00000000E+00
  0.00000000E+00  0.00000000E+00  0.00000000E+00
  0.00000000E+00  0.00000000E+00  0.00000000E+00
  0.00000000E+00  0.00000000E+00  0.00000000E+00
  0.00000000E+00  0.00000000E+00  0.00000000E+00
  0.00000000E+00  0.00000000E+00  0.00000000E+00
  0.00000000E+00  0.00000000E+00  0.00000000E+00
  0.00000000E+00  0.00000000E+00  0.00000000E+00
  0.00000000E+00  0.00000000E+00  0.00000000E+00
  0.00000000E+00  0.00000000E+00  0.00000000E+00
  0.00000000E+00  0.00000000E+00  0.00000000E+00
  0.00000000E+00  0.00000000E+00  0.00000000E+00
  0.00000000E+00  0.00000000E+00  0.00000000E+00
  0.00000000E+00  0.00000000E+00  0.00000000E+00
  0.00000000E+00  0.00000000E+00  0.00000000E+00
  0.00000000E+00  0.00000000E+00  0.00000000E+00
  0.00000000E+00  0.00000000E+00  0.00000000E+00
  0.00000000E+00  0.00000000E+00  0.00000000E+00
  0.00000000E+00  0.00000000E+00  0.00000000E+00
  0.00000000E+00  0.00000000E+00  0.00000000E+00
  0.00000000E+00  0.00000000E+00  0.00000000E+00
  0.00000000E+00  0.00000000E+00  0.00000000E+00
  0.00000000E+00  0.00000000E+00  0.00000000E+00
  0.00000000E+00  0.00000000E+00  0.00000000E+00
  0.00000000E+00  0.00000000E+00  0.00000000E+00
  0.00000000E+00  0.00000000E+00  0.00000000E+00
  0.00000000E+00  0.00000000E+00  0.00000000E+00
  0.00000000E+00  0.00000000E+00  0.00000000E+00
  0.00000000E+00  0.00000000E+00  0.00000000E+00
  0.00000000E+00  0.00000000E+00  0.00000000E+00
  0.00000000E+00  0.00000000E+00  0.00000000E+00
  0.00000000E+00  0.00000000E+00  0.00000000E+00
  0.00000000E+00  0.00000000E+00  0.00000000E+00
  0.00000000E+00  0.00000000E+00  0.00000000E+00
  0.00000000E+00  0.00000000E+00  0.00000000E+00
  0.00000000E+00  0.00000000E+00  0.00000000E+00
  0.00000000E+00  0.00000000E+00  0.00000000E+00
  0.00000000E+00  0.00000000E+00  0.00000000E+00
  0.00000000E+00  0.00000000E+00  0.00000000E+00
  0.00000000E+00  0.00000000E+00  0.00000000E+00
  0.00000000E+00  0.00000000E+00  0.00000000E+00
  0.00000000E+00  0.00000000E+00  0.00000000E+00
  0.00000000E+00  0.00000000E+00  0.00000000E+00
  0.00000000E+00  0.00000000E+00  0.00000000E+00
  0.00000000E+00  0.00000000E+00  0.00000000E+00
  0.00000000E+00  0.00000000E+00  0.00000000E+00
  0.00000000E+00  0.00000000E+00  0.00000000E+00
  0.00000000E+00  0.00000000E+00  0.00000000E+00
  0.00000000E+00  0.00000000E+00  0.00000000E+00
  0.00000000E+00  0.00000000E+00  0.00000000E+00
  0.00000000E+00  0.00000000E+00  0.00000000E+00
  0.00000000E+00  0.00000000E+00  0.00000000E+00
  0.00000000E+00  0.00000000E+00  0.00000000E+00
  0.00000000E+00  0.00000000E+00  0.00000000E+00
  0.00000000E+00  0.00000000E+00  0.00000000E+00
  0.00000000E+00  0.00000000E+00  0.00000000E+00
  0.00000000E+00  0.00000000E+00  0.00000000E+00
  0.00000000E+00  0.00000000E+00  0.00000000E+00
  0.00000000E+00  0.00000000E+00  0.00000000E+00
  0.00000000E+00  0.00000000E+00  0.00000000E+00
  0.00000000E+00  0.00000000E+00  0.00000000E+00
  0.00000000E+00  0.00000000E+00  0.00000000E+00
  0.00000000E+00  0.00000000E+00  0.00000000E+00
  0.00000000E+00  0.00000000E+00  0.00000000E+00
  0.00000000E+00  0.00000000E+00  0.00000000E+00
  0.00000000E+00  0.00000000E+00  0.00000000E+00
  0.00000000E+00  0.00000000E+00  0.00000000E+00
  0.00000000E+00  0.00000000E+00  0.00000000E+00
  0.00000000E+00  0.00000000E+00  0.00000000E+00
  0.00000000E+00  0.00000000E+00  0.00000000E+00
  0.00000000E+00  0.00000000E+00  0.00000000E+00
  0.00000000E+00  0.00000000E+00  0.00000000E+00
  0.00000000E+00  0.00000000E+00  0.00000000E+00
  0.00000000E+00  0.00000000E+00  0.00000000E+00
  0.00000000E+00  0.00000000E+00  0.00000000E+00
  0.00000000E+00  0.00000000E+00  0.00000000E+00
  0.00000000E+00  0.00000000E+00  0.00000000E+00
  0.00000000E+00  0.00000000E+00  0.00000000E+00
  0.00000000E+00  0.00000000E+00  0.00000000E+00
  0.00000000E+00  0.00000000E+00  0.00000000E+00
  0.00000000E+00  0.00000000E+00  0.00000000E+00
  0.00000000E+00  0.00000000E+00  0.00000000E+00
  0.00000000E+00  0.00000000E+00  0.00000000E+00
  0.00000000E+00  0.00000000E+00  0.00000000E+00
  0.00000000E+00  0.00000000E+00  0.00000000E+00
  0.00000000E+00  0.00000000E+00  0.00000000E+00
  0.00000000E+00  0.00000000E+00  0.00000000E+00
  0.00000000E+00  0.00000000E+00  0.00000000E+00
  0.00000000E+00  0.00000000E+00  0.00000000E+00
