0.0                                     
   3.00000000000000     
     4.3561299999999994    0.0000000000000000    0.0000000000000000
     0.0000000000000000    4.3037081737810849    0.0000000000000000
     0.0000000000000000    0.0000000000000000    4.3025798920507201
   Mo   Nb   Ta   W 
    32    32    32    32
Selective dynamics
Direct
  0.0023314140739141  0.9990607702114244  0.9980062012115378   T   T   T
  0.9987333193406049  0.0014790493447866  0.7494035709843905   T   T   T
  0.9998785254047706  0.7524045405551074  0.0002299557803215   T   T   T
  0.0027508913995229  0.7521023029936741  0.2481821833403074   T   T   T
  0.9976555082966639  0.7543002528390322  0.7507351069588115   T   T   T
  0.1228402935381460  0.1238576388692643  0.6238134672598021   T   T   T
  0.1208858800612969  0.1231289364324139  0.8741615641350652   T   T   T
  0.1255977515914519  0.6286129594578579  0.1266217275291379   T   T   T
  0.1249220455012987  0.8737408241472291  0.1267155618168124   T   T   T
  0.2488511343992321  0.9982196546510689  0.2514841767416576   T   T   T
  0.2496329780435534  0.7516854855138140  0.2483157152632686   T   T   T
  0.2483898045290636  0.7534136707047636  0.4977943339132136   T   T   T
  0.3754188903753960  0.1250256280565230  0.6235053940420855   T   T   T
  0.3738582339624548  0.6254050671009688  0.1267637183934938   T   T   T
  0.3729570714639154  0.8750161567721348  0.3740648880378430   T   T   T
  0.5001494809614385  0.2484465071616931  0.5022284377316514   T   T   T
  0.4990918664267184  0.5019069939709959  0.2505773404529614   T   T   T
  0.5010241361966310  0.4988225558307524  0.4997371427989294   T   T   T
  0.6254975352237934  0.1261814849252297  0.6259969124285051   T   T   T
  0.6267154944558248  0.1269048975970582  0.8711370922154948   T   T   T
  0.6233969665039074  0.3741045959862976  0.6267069121914743   T   T   T
  0.6255638831316718  0.3762146083549831  0.8713469906472219   T   T   T
  0.6230177202118221  0.6260060380586925  0.1245857180728500   T   T   T
  0.6223200224811005  0.6256160027128531  0.3746516023192362   T   T   T
  0.7493008034842767  0.2486368409563550  0.7505000402930793   T   T   T
  0.7484306076733538  0.4987585309210228  0.7508232021991681   T   T   T
  0.7506003978771446  0.7518098960598402  0.5010890849970842   T   T   T
  0.8761613774646752  0.1243465723339286  0.6264602333673627   T   T   T
  0.8733315703143100  0.3731784797963368  0.8735097615387846   T   T   T
  0.8773928888134206  0.6272268373210351  0.1242517661953421   T   T   T
  0.8777432135387455  0.8760278565859968  0.3762338709636813   T   T   T
  0.8780704135929868  0.8760002961379761  0.8747018710981022   T   T   T
  0.9966043234100271  0.5039943695266368  0.9992669796418779   T   T   T
  0.1260296405058069  0.6280871802664272  0.3707946569786654   T   T   T
  0.1222325884316431  0.6274523856793641  0.6225025371909683   T   T   T
  0.1217206659373683  0.6294768761578731  0.8779259433485304   T   T   T
  0.2463827759730927  0.0000218797311581  0.0019008128106104   T   T   T
  0.2450949582077552  0.0004016703849944  0.7479616407595496   T   T   T
  0.2490613210264969  0.2459288435124209  0.7481702098707282   T   T   T
  0.2489270961910399  0.5030208379120943  0.0014981765494923   T   T   T
  0.3783801797532952  0.3724094784719095  0.6233178745665542   T   T   T
  0.3777416456503861  0.3753150096951776  0.8741243670334181   T   T   T
  0.3746946228467305  0.6255509868790987  0.3713063344128188   T   T   T
  0.3771888442163395  0.6248460177971963  0.6218830853800930   T   T   T
  0.3719552393285642  0.8724625763899458  0.1285309449361429   T   T   T
  0.5006000277140200  0.0007635323805147  0.5022634727281661   T   T   T
  0.5020446736746309  0.2492903035796599  0.9978642881679313   T   T   T
  0.4996580262189280  0.7480009938780889  0.0036411187030208   T   T   T
  0.5018913526410319  0.7495103737379258  0.4982404908572403   T   T   T
  0.6227495527694410  0.3778260412634240  0.1248121360242555   T   T   T
  0.6211156056073877  0.3764105288767410  0.3785973442088679   T   T   T
  0.7537988833305006  0.0000848895798989  0.9964015135575135   T   T   T
  0.7521698030361688  0.0017892035654809  0.7478752814256879   T   T   T
  0.7515206024129971  0.2512231918581166  0.9949028993262909   T   T   T
  0.7475244238385608  0.2474516609954394  0.5046509499500965   T   T   T
  0.7505200633123841  0.5010497865739650  0.9991320843542787   T   T   T
  0.7477124649372988  0.5040301299337138  0.2491220115254335   T   T   T
  0.7455356233012588  0.5005903604985922  0.5014551095071444   T   T   T
  0.7521493750335608  0.7477165316117944  0.2494648961774607   T   T   T
  0.8789741651497610  0.1223542069043381  0.1231146793028578   T   T   T
  0.8731824868979399  0.3733476258386556  0.6260810618219158   T   T   T
  0.8765053304615372  0.6256837645870138  0.3741380196602897   T   T   T
  0.8723542824173076  0.6263155162500447  0.6244804523588494   T   T   T
  0.8808022375498199  0.8728648203782198  0.1234699320110385   T   T   T
  0.0029997269163811  0.2459152102975942  0.2501190504943652   T   T   T
  0.9950447161904105  0.4998699577912286  0.7525282063820684   T   T   T
  0.9992391363546511  0.7562021116273728  0.4985669595398547   T   T   T
  0.1242451652993046  0.3773505918149359  0.1261789110023843   T   T   T
  0.1238975094663035  0.3761145600537961  0.3759288107835250   T   T   T
  0.1220030490687425  0.3709171783982751  0.6227601749304759   T   T   T
  0.1218911075854588  0.3727772573338510  0.8746701604708828   T   T   T
  0.2480781067583687  0.2457784368553359  0.0009543901741435   T   T   T
  0.2505735209042600  0.2469004941574276  0.2499029710919770   T   T   T
  0.2522626423395636  0.4991734194039362  0.4991380826148191   T   T   T
  0.2493381173881811  0.5012174108143498  0.7477471339541668   T   T   T
  0.2461888443618176  0.7517475061282290  0.7498677739581775   T   T   T
  0.3735634703389081  0.1226387413420573  0.3774663926110344   T   T   T
  0.3764463941513171  0.1245298909591877  0.8710118610257083   T   T   T
  0.3753884035728659  0.3794749394941786  0.1257689398743781   T   T   T
  0.3765321064905386  0.6246315304622326  0.8771430640982376   T   T   T
  0.3725504615617281  0.8768684819806462  0.6226999282627081   T   T   T
  0.3737280606522567  0.8752002362593859  0.8746658098017592   T   T   T
  0.4994744502252864  0.0018380538547666  0.9999708390435109   T   T   T
  0.4991205902714412  0.2492603164094964  0.2529233098534724   T   T   T
  0.5029381169073291  0.7500641109738955  0.7458200751447404   T   T   T
  0.6254011664905583  0.1221332195618428  0.1261040132507180   T   T   T
  0.6256386645329991  0.6226852138756700  0.8747422325486094   T   T   T
  0.6253763674598852  0.8731966350728093  0.1272540864229753   T   T   T
  0.6259314522928483  0.8732975242261145  0.3758623138358617   T   T   T
  0.6264526916838254  0.8745213944379803  0.8757869262708776   T   T   T
  0.7538114591124110  0.9980298869933415  0.2542851015734037   T   T   T
  0.7479168801068646  0.2478488303911360  0.2525527155344569   T   T   T
  0.7518687942727610  0.7527164216156530  0.7491454888921886   T   T   T
  0.8783258329437278  0.1232288435593487  0.3794923059346350   T   T   T
  0.8780147881959504  0.3758520212192477  0.1253093982686971   T   T   T
  0.8781310249071977  0.3756490647551323  0.3769389984695749   T   T   T
  0.0043815234034489  0.9979319933872504  0.2514657101385336   T   T   T
  0.0014028129325541  0.9989200644066032  0.5018761866416500   T   T   T
  0.0002066065212864  0.2472381560291248  0.9972431320453844   T   T   T
  0.0006043003177676  0.2449580142843445  0.5025952289192984   T   T   T
  0.9971688906996363  0.2464962534910861  0.7509485931827566   T   T   T
  0.0005080052089992  0.5036461103072151  0.2476688918012146   T   T   T
  0.9987854236299666  0.5017281807305378  0.5003718080932378   T   T   T
  0.1240636156126249  0.1208468663658326  0.1257863898688792   T   T   T
  0.1261161939698982  0.1218222376434357  0.3774150714946962   T   T   T
  0.1266360561587697  0.8764212504998931  0.3737423988245340   T   T   T
  0.1231708640362432  0.8780411780341874  0.6234065179120221   T   T   T
  0.1205850355704308  0.8752727765342283  0.8761327482448438   T   T   T
  0.2472010466892395  0.0005471221377694  0.4998402881080453   T   T   T
  0.2501142519922135  0.2469469682814601  0.4993245579968962   T   T   T
  0.2512789006323646  0.5022259388034737  0.2499528146801822   T   T   T
  0.2460778594239817  0.7515105816620146  0.0023898558988543   T   T   T
  0.3746539603760142  0.1220246382343840  0.1280045051096304   T   T   T
  0.3743199459616447  0.3749585700791687  0.3756580441061702   T   T   T
  0.4983787302655636  0.9989729373039287  0.2522404217582573   T   T   T
  0.5031308242410127  0.0026832556512909  0.7478623450683217   T   T   T
  0.5045612094880108  0.2496260252757722  0.7478877374058479   T   T   T
  0.5017489069569367  0.5006202547262009  0.0009019021563429   T   T   T
  0.5034366280035735  0.4973401143662486  0.7484875277285167   T   T   T
  0.4991461812457166  0.7473190194342076  0.2508140707655492   T   T   T
  0.6239002941333965  0.1222689393255964  0.3786532499910491   T   T   T
  0.6257883147624206  0.6227131783807589  0.6248916369517390   T   T   T
  0.6274384365519841  0.8771069003928463  0.6230936037400618   T   T   T
  0.7513670185169483  0.0001182542488940  0.5029378666001850   T   T   T
  0.7538777505345712  0.7480514080177642  0.9991676541881195   T   T   T
  0.8778567765227242  0.1253128306965871  0.8727619825352948   T   T   T
  0.8735168279157135  0.6280445693778044  0.8750404771456239   T   T   T
  0.8768689868040423  0.8777424127126163  0.6249035047173997   T   T   T
 
  0.00000000E+00  0.00000000E+00  0.00000000E+00
  0.00000000E+00  0.00000000E+00  0.00000000E+00
  0.00000000E+00  0.00000000E+00  0.00000000E+00
  0.00000000E+00  0.00000000E+00  0.00000000E+00
  0.00000000E+00  0.00000000E+00  0.00000000E+00
  0.00000000E+00  0.00000000E+00  0.00000000E+00
  0.00000000E+00  0.00000000E+00  0.00000000E+00
  0.00000000E+00  0.00000000E+00  0.00000000E+00
  0.00000000E+00  0.00000000E+00  0.00000000E+00
  0.00000000E+00  0.00000000E+00  0.00000000E+00
  0.00000000E+00  0.00000000E+00  0.00000000E+00
  0.00000000E+00  0.00000000E+00  0.00000000E+00
  0.00000000E+00  0.00000000E+00  0.00000000E+00
  0.00000000E+00  0.00000000E+00  0.00000000E+00
  0.00000000E+00  0.00000000E+00  0.00000000E+00
  0.00000000E+00  0.00000000E+00  0.00000000E+00
  0.00000000E+00  0.00000000E+00  0.00000000E+00
  0.00000000E+00  0.00000000E+00  0.00000000E+00
  0.00000000E+00  0.00000000E+00  0.00000000E+00
  0.00000000E+00  0.00000000E+00  0.00000000E+00
  0.00000000E+00  0.00000000E+00  0.00000000E+00
  0.00000000E+00  0.00000000E+00  0.00000000E+00
  0.00000000E+00  0.00000000E+00  0.00000000E+00
  0.00000000E+00  0.00000000E+00  0.00000000E+00
  0.00000000E+00  0.00000000E+00  0.00000000E+00
  0.00000000E+00  0.00000000E+00  0.00000000E+00
  0.00000000E+00  0.00000000E+00  0.00000000E+00
  0.00000000E+00  0.00000000E+00  0.00000000E+00
  0.00000000E+00  0.00000000E+00  0.00000000E+00
  0.00000000E+00  0.00000000E+00  0.00000000E+00
  0.00000000E+00  0.00000000E+00  0.00000000E+00
  0.00000000E+00  0.00000000E+00  0.00000000E+00
  0.00000000E+00  0.00000000E+00  0.00000000E+00
  0.00000000E+00  0.00000000E+00  0.00000000E+00
  0.00000000E+00  0.00000000E+00  0.00000000E+00
  0.00000000E+00  0.00000000E+00  0.00000000E+00
  0.00000000E+00  0.00000000E+00  0.00000000E+00
  0.00000000E+00  0.00000000E+00  0.00000000E+00
  0.00000000E+00  0.00000000E+00  0.00000000E+00
  0.00000000E+00  0.00000000E+00  0.00000000E+00
  0.00000000E+00  0.00000000E+00  0.00000000E+00
  0.00000000E+00  0.00000000E+00  0.00000000E+00
  0.00000000E+00  0.00000000E+00  0.00000000E+00
  0.00000000E+00  0.00000000E+00  0.00000000E+00
  0.00000000E+00  0.00000000E+00  0.00000000E+00
  0.00000000E+00  0.00000000E+00  0.00000000E+00
  0.00000000E+00  0.00000000E+00  0.00000000E+00
  0.00000000E+00  0.00000000E+00  0.00000000E+00
  0.00000000E+00  0.00000000E+00  0.00000000E+00
  0.00000000E+00  0.00000000E+00  0.00000000E+00
  0.00000000E+00  0.00000000E+00  0.00000000E+00
  0.00000000E+00  0.00000000E+00  0.00000000E+00
  0.00000000E+00  0.00000000E+00  0.00000000E+00
  0.00000000E+00  0.00000000E+00  0.00000000E+00
  0.00000000E+00  0.00000000E+00  0.00000000E+00
  0.00000000E+00  0.00000000E+00  0.00000000E+00
  0.00000000E+00  0.00000000E+00  0.00000000E+00
  0.00000000E+00  0.00000000E+00  0.00000000E+00
  0.00000000E+00  0.00000000E+00  0.00000000E+00
  0.00000000E+00  0.00000000E+00  0.00000000E+00
  0.00000000E+00  0.00000000E+00  0.00000000E+00
  0.00000000E+00  0.00000000E+00  0.00000000E+00
  0.00000000E+00  0.00000000E+00  0.00000000E+00
  0.00000000E+00  0.00000000E+00  0.00000000E+00
  0.00000000E+00  0.00000000E+00  0.00000000E+00
  0.00000000E+00  0.00000000E+00  0.00000000E+00
  0.00000000E+00  0.00000000E+00  0.00000000E+00
  0.00000000E+00  0.00000000E+00  0.00000000E+00
  0.00000000E+00  0.00000000E+00  0.00000000E+00
  0.00000000E+00  0.00000000E+00  0.00000000E+00
  0.00000000E+00  0.00000000E+00  0.00000000E+00
  0.00000000E+00  0.00000000E+00  0.00000000E+00
  0.00000000E+00  0.00000000E+00  0.00000000E+00
  0.00000000E+00  0.00000000E+00  0.00000000E+00
  0.00000000E+00  0.00000000E+00  0.00000000E+00
  0.00000000E+00  0.00000000E+00  0.00000000E+00
  0.00000000E+00  0.00000000E+00  0.00000000E+00
  0.00000000E+00  0.00000000E+00  0.00000000E+00
  0.00000000E+00  0.00000000E+00  0.00000000E+00
  0.00000000E+00  0.00000000E+00  0.00000000E+00
  0.00000000E+00  0.00000000E+00  0.00000000E+00
  0.00000000E+00  0.00000000E+00  0.00000000E+00
  0.00000000E+00  0.00000000E+00  0.00000000E+00
  0.00000000E+00  0.00000000E+00  0.00000000E+00
  0.00000000E+00  0.00000000E+00  0.00000000E+00
  0.00000000E+00  0.00000000E+00  0.00000000E+00
  0.00000000E+00  0.00000000E+00  0.00000000E+00
  0.00000000E+00  0.00000000E+00  0.00000000E+00
  0.00000000E+00  0.00000000E+00  0.00000000E+00
  0.00000000E+00  0.00000000E+00  0.00000000E+00
  0.00000000E+00  0.00000000E+00  0.00000000E+00
  0.00000000E+00  0.00000000E+00  0.00000000E+00
  0.00000000E+00  0.00000000E+00  0.00000000E+00
  0.00000000E+00  0.00000000E+00  0.00000000E+00
  0.00000000E+00  0.00000000E+00  0.00000000E+00
  0.00000000E+00  0.00000000E+00  0.00000000E+00
  0.00000000E+00  0.00000000E+00  0.00000000E+00
  0.00000000E+00  0.00000000E+00  0.00000000E+00
  0.00000000E+00  0.00000000E+00  0.00000000E+00
  0.00000000E+00  0.00000000E+00  0.00000000E+00
  0.00000000E+00  0.00000000E+00  0.00000000E+00
  0.00000000E+00  0.00000000E+00  0.00000000E+00
  0.00000000E+00  0.00000000E+00  0.00000000E+00
  0.00000000E+00  0.00000000E+00  0.00000000E+00
  0.00000000E+00  0.00000000E+00  0.00000000E+00
  0.00000000E+00  0.00000000E+00  0.00000000E+00
  0.00000000E+00  0.00000000E+00  0.00000000E+00
  0.00000000E+00  0.00000000E+00  0.00000000E+00
  0.00000000E+00  0.00000000E+00  0.00000000E+00
  0.00000000E+00  0.00000000E+00  0.00000000E+00
  0.00000000E+00  0.00000000E+00  0.00000000E+00
  0.00000000E+00  0.00000000E+00  0.00000000E+00
  0.00000000E+00  0.00000000E+00  0.00000000E+00
  0.00000000E+00  0.00000000E+00  0.00000000E+00
  0.00000000E+00  0.00000000E+00  0.00000000E+00
  0.00000000E+00  0.00000000E+00  0.00000000E+00
  0.00000000E+00  0.00000000E+00  0.00000000E+00
  0.00000000E+00  0.00000000E+00  0.00000000E+00
  0.00000000E+00  0.00000000E+00  0.00000000E+00
  0.00000000E+00  0.00000000E+00  0.00000000E+00
  0.00000000E+00  0.00000000E+00  0.00000000E+00
  0.00000000E+00  0.00000000E+00  0.00000000E+00
  0.00000000E+00  0.00000000E+00  0.00000000E+00
  0.00000000E+00  0.00000000E+00  0.00000000E+00
  0.00000000E+00  0.00000000E+00  0.00000000E+00
  0.00000000E+00  0.00000000E+00  0.00000000E+00
  0.00000000E+00  0.00000000E+00  0.00000000E+00
  0.00000000E+00  0.00000000E+00  0.00000000E+00
